 VARIABLES = X,Y,Z,S11,S22,S33,S12,S13,S23
 ZONE, T="  0.1000D+01" F=FEPOINT, I=   12 J=    2 ET=BRICK
   0.0000000000E+00   0.0000000000E+00   0.0000000000E+00   0.2482778881E+00   0.4602847484E-08   0.4602847138E-08   0.1809223084E-15  -0.1665209941E-15   0.6561924131E-15
   0.1075000000E+01   0.8742394974E-16  -0.1208063017E-15   0.2482778881E+00   0.4602813583E-08   0.4602813554E-08   0.2403820977E-15   0.1853886736E-15   0.1667446259E-15
   0.1075000000E+01   0.9646851741E+00  -0.1871554814E-15   0.2482778880E+00   0.4602783868E-08   0.4602784189E-08  -0.1473591944E-15   0.1679472368E-15   0.1883642938E-15
   0.0000000000E+00   0.9646851741E+00   0.0000000000E+00   0.2482778881E+00   0.4602844553E-08   0.4602842764E-08  -0.6136915280E-15  -0.1152657042E-15  -0.2039639327E-15
   0.0000000000E+00   0.7782391097E-15   0.9646851741E+00   0.2482778881E+00   0.4602770847E-08   0.4602772515E-08  -0.5253049042E-15  -0.1186448892E-15   0.2702814978E-15
   0.1075000000E+01   0.3497906520E-15   0.9646851741E+00   0.2482778880E+00   0.4602745593E-08   0.4602745347E-08   0.1463313522E-15  -0.5545838190E-16  -0.2105537124E-15
   0.1075000000E+01   0.9646851741E+00   0.9646851741E+00   0.2482778880E+00   0.4602855909E-08   0.4602856020E-08   0.6147757409E-15   0.5466544280E-15  -0.1889340445E-15
   0.0000000000E+00   0.9646851741E+00   0.9646851741E+00   0.2482778880E+00   0.4602781604E-08   0.4602781764E-08   0.1178869080E-15  -0.3492946612E-15  -0.5898748479E-15
   0.2150000000E+01  -0.8724468322E-16  -0.1479424270E-15   0.2482778881E+00   0.4602826146E-08   0.4602826368E-08  -0.2911294200E-15  -0.6319503670E-16  -0.4547277636E-15
   0.2150000000E+01   0.9646851741E+00  -0.7449116504E-15   0.2482778880E+00   0.4602916803E-08   0.4602917445E-08  -0.2719981676E-15  -0.7532478475E-15  -0.8987982632E-16
   0.2150000000E+01  -0.2667748202E-16   0.9646851741E+00   0.2482778880E+00   0.4602912047E-08   0.4602911875E-08  -0.4295445037E-15  -0.5927652524E-15   0.3225741159E-16
   0.2150000000E+01   0.9646851741E+00   0.9646851741E+00   0.2482778880E+00   0.4602575526E-08   0.4602575785E-08  -0.1358475385E-15   0.2381954919E-15   0.3971053488E-15
     1     2     3     4     5     6     7     8
     2     9    10     3     6    11    12     7
 VARIABLES = X,Y,Z,S11,S22,S33,S12,S13,S23
 ZONE, T="  0.2000D+01" F=FEPOINT, I=   12 J=    2 ET=BRICK
   0.0000000000E+00   0.0000000000E+00   0.0000000000E+00   0.5760453968E+00   0.6140562313E-07   0.6140562240E-07  -0.1527198839E-15  -0.7413307039E-15  -0.2332647647E-15
   0.1150000000E+01  -0.8259534330E-16  -0.3070061747E-15   0.5760453968E+00   0.6140582444E-07   0.6140582535E-07  -0.1456950932E-15  -0.4054236995E-15   0.3577659312E-15
   0.1150000000E+01   0.9329523385E+00   0.4772722405E-15   0.5760453967E+00   0.6140549977E-07   0.6140549877E-07  -0.2533578100E-15   0.2738234088E-15   0.3367977132E-15
   0.0000000000E+00   0.9329523385E+00   0.0000000000E+00   0.5760453968E+00   0.6140578560E-07   0.6140578603E-07  -0.6867495891E-16   0.1053400325E-14  -0.1473561030E-15
   0.0000000000E+00  -0.3140461363E-15   0.9329523385E+00   0.5760453968E+00   0.6140550907E-07   0.6140550829E-07  -0.2868780583E-16   0.1043142569E-14   0.3837763287E-15
   0.1150000000E+01  -0.3817271756E-15   0.9329523385E+00   0.5760453967E+00   0.6140573818E-07   0.6140573921E-07   0.4547207844E-15  -0.4308364204E-15  -0.3363586438E-15
   0.1150000000E+01   0.9329523385E+00   0.9329523385E+00   0.5760453967E+00   0.6140550485E-07   0.6140550399E-07   0.5183519563E-15   0.2366912362E-15  -0.3573268616E-15
   0.0000000000E+00   0.9329523385E+00   0.9329523385E+00   0.5760453967E+00   0.6140582516E-07   0.6140582552E-07  -0.3471632186E-15  -0.1053342685E-14   0.4696849903E-15
   0.2300000000E+01  -0.8791179218E-16   0.1741157120E-15   0.5760453968E+00   0.6140542494E-07   0.6140542473E-07   0.1180853588E-16   0.9920095231E-15  -0.5153082896E-15
   0.2300000000E+01   0.9329523385E+00   0.1642770085E-16   0.5760453967E+00   0.6140572951E-07   0.6140573068E-07  -0.2875618227E-15  -0.9982438005E-15  -0.2549487332E-15
   0.2300000000E+01  -0.6248712870E-15   0.9329523385E+00   0.5760453967E+00   0.6140568372E-07   0.6140568255E-07  -0.3880791665E-15  -0.8432891911E-15   0.9605934872E-16
   0.2300000000E+01   0.9329523385E+00   0.9329523385E+00   0.5760453967E+00   0.6140578567E-07   0.6140578590E-07   0.5765859031E-16   0.1034234864E-14   0.3564189051E-15
     1     2     3     4     5     6     7     8
     2     9    10     3     6    11    12     7
 VARIABLES = X,Y,Z,S11,S22,S33,S12,S13,S23
 ZONE, T="  0.3000D+01" F=FEPOINT, I=   12 J=    2 ET=BRICK
   0.0000000000E+00   0.0000000000E+00   0.0000000000E+00   0.1049164453E+01   0.8372873231E-07   0.8372873200E-07  -0.9221735534E-16  -0.5095423714E-15  -0.1213793105E-15
   0.1225000000E+01  -0.3486407448E-16  -0.1627568571E-15   0.1049164453E+01   0.8372861318E-07   0.8372861264E-07   0.9367887069E-15   0.1182031033E-14   0.6191656479E-16
   0.1225000000E+01   0.9042974983E+00   0.2703504925E-15   0.1049164453E+01   0.8372879621E-07   0.8372879618E-07   0.6868931894E-15  -0.4958554369E-15   0.7728444278E-16
   0.0000000000E+00   0.9042974983E+00   0.0000000000E+00   0.1049164453E+01   0.8372883111E-07   0.8372883084E-07  -0.5871147987E-15   0.6430653211E-15  -0.4645267052E-15
   0.0000000000E+00  -0.1790776827E-15   0.9042974983E+00   0.1049164453E+01   0.8372866487E-07   0.8372866533E-07  -0.4757851001E-15   0.2685209243E-15   0.7144949877E-16
   0.1225000000E+01  -0.3716340020E-15   0.9042974983E+00   0.1049164453E+01   0.8372866582E-07   0.8372866547E-07  -0.1062150706E-14   0.1058674470E-14  -0.4750423530E-16
   0.1225000000E+01   0.9042974983E+00   0.9042974983E+00   0.1049164453E+01   0.8372866640E-07   0.8372866650E-07  -0.6809402916E-15  -0.1554306772E-15  -0.3213635730E-16
   0.0000000000E+00   0.9042974983E+00   0.9042974983E+00   0.1049164453E+01   0.8372861354E-07   0.8372861379E-07   0.2138356693E-15  -0.8505707263E-16  -0.2716978959E-15
   0.2450000000E+01  -0.1791517040E-16   0.1412894906E-15   0.1049164453E+01   0.8372875462E-07   0.8372875438E-07   0.5210960193E-16   0.8194624828E-15  -0.2136215793E-15
   0.2450000000E+01   0.9042974983E+00   0.1490925971E-15   0.1049164453E+01   0.8372865548E-07   0.8372865605E-07   0.4721601049E-16  -0.5085201672E-15  -0.9509372600E-16
   0.2450000000E+01  -0.3419994589E-15   0.9042974983E+00   0.1049164453E+01   0.8372869501E-07   0.8372869444E-07   0.1387916471E-15  -0.2053139386E-15   0.3154435271E-15
   0.2450000000E+01   0.9042974983E+00   0.9042974983E+00   0.1049164453E+01   0.8372884566E-07   0.8372884570E-07   0.2115917056E-15   0.9004517457E-15   0.4339713804E-15
     1     2     3     4     5     6     7     8
     2     9    10     3     6    11    12     7
 VARIABLES = X,Y,Z,S11,S22,S33,S12,S13,S23
 ZONE, T="  0.4000D+01" F=FEPOINT, I=   12 J=    2 ET=BRICK
   0.0000000000E+00   0.0000000000E+00   0.0000000000E+00   0.1776880462E+01   0.1093695521E-06   0.1093695521E-06   0.5402910784E-15   0.6324231366E-15  -0.6845463834E-16
   0.1300000000E+01   0.1419626893E-15   0.1574912406E-15   0.1776880462E+01   0.1093693189E-06   0.1093693190E-06  -0.8534741400E-16  -0.7512472547E-16  -0.2824426478E-15
   0.1300000000E+01   0.8783557488E+00  -0.1259026216E-16   0.1776880462E+01   0.1093694388E-06   0.1093694398E-06  -0.3210964421E-15   0.3060901167E-15   0.2175357953E-16
   0.0000000000E+00   0.8783557488E+00   0.0000000000E+00   0.1776880462E+01   0.1093695166E-06   0.1093695164E-06  -0.6789801902E-15  -0.3004237043E-15  -0.8524127686E-16
   0.0000000000E+00  -0.1163782602E-15   0.8783557488E+00   0.1776880462E+01   0.1093694951E-06   0.1093694952E-06  -0.1811027715E-15  -0.6135238681E-15  -0.1457470434E-15
   0.1300000000E+01  -0.1242060585E-15   0.8783557488E+00   0.1776880462E+01   0.1093695316E-06   0.1093695311E-06   0.2046098136E-16  -0.5964309015E-16   0.1156252680E-16
   0.1300000000E+01   0.8783557488E+00   0.8783557488E+00   0.1776880461E+01   0.1093696519E-06   0.1093696518E-06  -0.2212793227E-15  -0.1610614672E-15   0.3157587541E-15
   0.0000000000E+00   0.8783557488E+00   0.8783557488E+00   0.1776880461E+01   0.1093694595E-06   0.1093694596E-06   0.5192451013E-15   0.7129657454E-15  -0.1625336819E-15
   0.2600000000E+01   0.1893434740E-16   0.6363869406E-17   0.1776880462E+01   0.1093695184E-06   0.1093695185E-06  -0.4778191895E-15  -0.4841971823E-15   0.2663013956E-15
   0.2600000000E+01   0.8783557488E+00   0.3144670021E-15   0.1776880462E+01   0.1093693911E-06   0.1093693905E-06   0.2699540228E-15   0.9776263871E-15   0.2271113935E-15
   0.2600000000E+01   0.1232453084E-15   0.8783557488E+00   0.1776880462E+01   0.1093694609E-06   0.1093694618E-06   0.7965407271E-15   0.7927130929E-15  -0.5128323991E-16
   0.2600000000E+01   0.8783557488E+00   0.8783557488E+00   0.1776880461E+01   0.1093693339E-06   0.1093693338E-06  -0.3872877537E-15  -0.9700662303E-15  -0.9047324192E-16
     1     2     3     4     5     6     7     8
     2     9    10     3     6    11    12     7
 VARIABLES = X,Y,Z,S11,S22,S33,S12,S13,S23
 ZONE, T="  0.5000D+01" F=FEPOINT, I=   12 J=    2 ET=BRICK
   0.0000000000E+00   0.0000000000E+00   0.0000000000E+00   0.2953334594E+01   0.1501847872E-06   0.1501847842E-06   0.9595424552E-16  -0.9194410071E-14  -0.9366181346E-15
   0.1375000000E+01   0.1143266631E-16  -0.1762072708E-14   0.2953334594E+01   0.1501847096E-06   0.1501847122E-06  -0.7574554958E-15  -0.4553872337E-15   0.1078964285E-14
   0.1375000000E+01   0.8548991327E+00  -0.7379755472E-15   0.2953334594E+01   0.1501847433E-06   0.1501847458E-06  -0.9940673364E-15   0.9037568942E-15   0.8254032178E-15
   0.0000000000E+00   0.8548991327E+00   0.0000000000E+00   0.2953334594E+01   0.1501846071E-06   0.1501846040E-06  -0.1099365734E-13  -0.3682972851E-14  -0.9399931376E-15
   0.0000000000E+00  -0.1536583233E-14   0.8548991327E+00   0.2953334594E+01   0.1501846491E-06   0.1501846464E-06   0.1202397031E-13   0.5692538535E-15  -0.1276516730E-14
   0.1375000000E+01   0.7416189641E-15   0.8548991327E+00   0.2953334594E+01   0.1501846503E-06   0.1501846531E-06   0.8386396787E-15  -0.9951043433E-15   0.1386868483E-14
   0.1375000000E+01   0.8548991327E+00   0.8548991327E+00   0.2953334593E+01   0.1501847093E-06   0.1501847124E-06   0.1280329221E-14   0.1388573091E-14   0.1133307416E-14
   0.0000000000E+00   0.8548991327E+00   0.8548991327E+00   0.2953334593E+01   0.1501846897E-06   0.1501846868E-06  -0.1562473771E-14   0.1104571531E-13  -0.1279891733E-14
   0.2750000000E+01  -0.1924678102E-16  -0.2598856943E-16   0.2953334594E+01   0.1501845200E-06   0.1501845169E-06  -0.1543975405E-15   0.9229651944E-14  -0.1170050591E-14
   0.2750000000E+01   0.8548991327E+00  -0.3236003300E-15   0.2953334593E+01   0.1501848176E-06   0.1501848148E-06   0.1046199036E-13   0.2237086720E-14  -0.9634260093E-15
   0.2750000000E+01  -0.1625181836E-14   0.8548991327E+00   0.2953334593E+01   0.1501847255E-06   0.1501847218E-06  -0.1240987670E-13  -0.1613446198E-14  -0.1130134959E-14
   0.2750000000E+01   0.8548991327E+00   0.8548991327E+00   0.2953334593E+01   0.1501846168E-06   0.1501846139E-06   0.2059946467E-14  -0.1152196905E-13  -0.9235103770E-15
     1     2     3     4     5     6     7     8
     2     9    10     3     6    11    12     7
 VARIABLES = X,Y,Z,S11,S22,S33,S12,S13,S23
 ZONE, T="  0.6000D+01" F=FEPOINT, I=   12 J=    2 ET=BRICK
   0.0000000000E+00   0.0000000000E+00   0.0000000000E+00   0.4934937747E+01   0.2329188885E-06   0.2329188908E-06  -0.4714065617E-14   0.8544329463E-14  -0.1138623464E-14
   0.1450000000E+01  -0.8854671722E-15   0.9507212666E-15   0.4934937746E+01   0.2329187763E-06   0.2329187743E-06  -0.1842666502E-14  -0.8520820730E-15  -0.1220526350E-14
   0.1450000000E+01   0.8338630074E+00   0.5553637977E-15   0.4934937746E+01   0.2329188245E-06   0.2329188225E-06  -0.1094082460E-14   0.2099521602E-14  -0.1550035342E-14
   0.0000000000E+00   0.8338630074E+00   0.0000000000E+00   0.4934937746E+01   0.2329188509E-06   0.2329188530E-06   0.8970742355E-14   0.2176254297E-14  -0.9744693775E-15
   0.0000000000E+00  -0.1803665089E-14   0.8338630074E+00   0.4934937746E+01   0.2329190096E-06   0.2329190130E-06  -0.6237220787E-14  -0.3164412033E-14  -0.1406122073E-14
   0.1450000000E+01  -0.2428058120E-14   0.8338630074E+00   0.4934937746E+01   0.2329186644E-06   0.2329186626E-06   0.1726039450E-14  -0.2907341901E-14  -0.1181120777E-14
   0.1450000000E+01   0.8338630074E+00   0.8338630074E+00   0.4934937745E+01   0.2329188047E-06   0.2329188033E-06   0.2280518315E-14   0.1790856256E-14  -0.1510629769E-14
   0.0000000000E+00   0.8338630074E+00   0.8338630074E+00   0.4934937745E+01   0.2329185924E-06   0.2329185935E-06   0.1524042275E-14  -0.6727299764E-14  -0.1241967986E-14
   0.2900000000E+01  -0.1603569545E-14  -0.9953814208E-15   0.4934937746E+01   0.2329187561E-06   0.2329187572E-06  -0.3170521445E-14  -0.1344998632E-13   0.2261880776E-14
   0.2900000000E+01   0.8338630074E+00   0.1611164719E-14   0.4934937746E+01   0.2329186663E-06   0.2329186681E-06  -0.1535816133E-13   0.6132474230E-14   0.2389348172E-14
   0.2900000000E+01  -0.6081297426E-15   0.8338630074E+00   0.4934937746E+01   0.2329186004E-06   0.2329186018E-06   0.1228378439E-13  -0.5851764485E-14   0.2417402619E-14
   0.2900000000E+01   0.8338630074E+00   0.8338630074E+00   0.4934937745E+01   0.2329188367E-06   0.2329188381E-06   0.5631479056E-14   0.1441869760E-13   0.2544870015E-14
     1     2     3     4     5     6     7     8
     2     9    10     3     6    11    12     7
 VARIABLES = X,Y,Z,S11,S22,S33,S12,S13,S23
 ZONE, T="  0.7000D+01" F=FEPOINT, I=   12 J=    2 ET=BRICK
   0.0000000000E+00   0.0000000000E+00   0.0000000000E+00   0.8377583070E+01   0.4351590643E-06   0.4351590598E-06  -0.2137289659E-14  -0.2230694963E-13  -0.1623063784E-14
   0.1525000000E+01  -0.1031677830E-15  -0.2485907982E-14   0.8377583070E+01   0.4351587592E-06   0.4351587596E-06   0.3073108899E-14  -0.1045893191E-13   0.1532474080E-14
   0.1525000000E+01   0.8154100406E+00  -0.3157146453E-15   0.8377583069E+01   0.4351590812E-06   0.4351590837E-06  -0.1182814775E-13  -0.3920361002E-14   0.1585658552E-14
   0.0000000000E+00   0.8154100406E+00   0.0000000000E+00   0.8377583069E+01   0.4351587708E-06   0.4351587633E-06  -0.2381031351E-13  -0.1689236894E-14  -0.1719480978E-14
   0.0000000000E+00  -0.2439059273E-14   0.8154100406E+00   0.8377583069E+01   0.4351591665E-06   0.4351591618E-06   0.2258179972E-13  -0.5675477255E-14  -0.1971524332E-14
   0.1525000000E+01   0.1988234653E-16   0.8154100406E+00   0.8377583069E+01   0.4351588372E-06   0.4351588375E-06   0.1079259808E-13   0.3918294884E-14   0.1791917090E-14
   0.1525000000E+01   0.8154100406E+00   0.8154100406E+00   0.8377583068E+01   0.4351591587E-06   0.4351591601E-06  -0.2359430950E-14   0.1139870646E-13   0.1845101562E-14
   0.0000000000E+00   0.8154100406E+00   0.8154100406E+00   0.8377583068E+01   0.4351588324E-06   0.4351588264E-06   0.2197580631E-14   0.2526234009E-13  -0.2067941526E-14
   0.3050000000E+01   0.4551204465E-15  -0.3404909157E-14   0.8377583069E+01   0.4351590982E-06   0.4351591034E-06   0.5777627500E-14  -0.3506707703E-14   0.1737433348E-14
   0.3050000000E+01   0.8154100406E+00  -0.9337810288E-15   0.8377583069E+01   0.4351589107E-06   0.4351589146E-06  -0.2351861946E-14  -0.5864132561E-14   0.2014096919E-14
   0.3050000000E+01   0.6057685250E-15   0.8154100406E+00   0.8377583069E+01   0.4351591609E-06   0.4351591653E-06   0.7815871787E-15   0.8616273519E-14   0.1543972906E-14
   0.3050000000E+01   0.8154100406E+00   0.8154100406E+00   0.8377583068E+01   0.4351590025E-06   0.4351590062E-06  -0.5138251799E-14  -0.2177574621E-14   0.1820636477E-14
     1     2     3     4     5     6     7     8
     2     9    10     3     6    11    12     7
 VARIABLES = X,Y,Z,S11,S22,S33,S12,S13,S23
 ZONE, T="  0.8000D+01" F=FEPOINT, I=   12 J=    2 ET=BRICK
   0.0000000000E+00   0.0000000000E+00   0.0000000000E+00   0.1443628083E+02   0.9814521204E-06   0.9814521409E-06  -0.8691099945E-13  -0.2928878264E-15  -0.4045415439E-14
   0.1600000000E+01  -0.7141219963E-14  -0.9411856597E-16   0.1443628083E+02   0.9814521899E-06   0.9814521893E-06  -0.8259708410E-13  -0.1608524548E-14   0.6654215205E-14
   0.1600000000E+01   0.8000236212E+00   0.7012303701E-14   0.1443628082E+02   0.9814524692E-06   0.9814524703E-06  -0.2870243165E-14   0.8056209843E-13   0.6647629634E-14
   0.0000000000E+00   0.8000236212E+00   0.0000000000E+00   0.1443628083E+02   0.9814519582E-06   0.9814519782E-06  -0.5958775346E-14   0.8554732924E-13  -0.4014420673E-14
   0.0000000000E+00  -0.5544007489E-14   0.8000236212E+00   0.1443628083E+02   0.9814524020E-06   0.9814524234E-06   0.5414004628E-14  -0.9100987512E-13  -0.4204876489E-14
   0.1600000000E+01  -0.5108200348E-14   0.8000236212E+00   0.1443628082E+02   0.9814519845E-06   0.9814519837E-06   0.3298519120E-14  -0.8123201784E-13   0.6923535581E-14
   0.1600000000E+01   0.8000236212E+00   0.8000236212E+00   0.1443628082E+02   0.9814523363E-06   0.9814523375E-06   0.8118869315E-13   0.1126293395E-14   0.6916950010E-14
   0.0000000000E+00   0.8000236212E+00   0.8000236212E+00   0.1443628082E+02   0.9814520745E-06   0.9814520940E-06   0.8805118127E-13   0.6240599901E-14  -0.4173881724E-14
   0.3200000000E+01  -0.1393896354E-13  -0.3924170333E-15   0.1443628083E+02   0.9814522721E-06   0.9814522528E-06  -0.8068152467E-13  -0.3960913647E-14   0.1683718261E-13
   0.3200000000E+01   0.8000236212E+00   0.1355382773E-13   0.1443628082E+02   0.9814519205E-06   0.9814519022E-06  -0.2180066899E-14   0.7745706545E-13   0.1664917846E-13
   0.3200000000E+01  -0.4714694786E-14   0.8000236212E+00   0.1443628082E+02   0.9814521786E-06   0.9814521628E-06   0.4894761127E-14  -0.7249091293E-13   0.1669112860E-13
   0.3200000000E+01   0.8000236212E+00   0.8000236212E+00   0.1443628082E+02   0.9814521490E-06   0.9814521291E-06   0.7803793254E-13  -0.2107815290E-14   0.1650312445E-13
     1     2     3     4     5     6     7     8
     2     9    10     3     6    11    12     7
 VARIABLES = X,Y,Z,S11,S22,S33,S12,S13,S23
 ZONE, T="  0.9000D+01" F=FEPOINT, I=   12 J=    2 ET=BRICK
   0.0000000000E+00   0.0000000000E+00   0.0000000000E+00   0.2490301696E+02   0.2190996714E-05   0.2190996566E-05   0.1221119287E-12  -0.7516841155E-12  -0.2040882948E-13
   0.1675000000E+01   0.7105817709E-14  -0.3865991342E-13   0.2490301696E+02   0.2190996969E-05   0.2190996971E-05   0.1980250492E-12  -0.6747255549E-12   0.3073041703E-13
   0.1675000000E+01   0.7885391880E+00  -0.7528691445E-14   0.2490301695E+02   0.2190996863E-05   0.2190996868E-05  -0.6834929408E-12  -0.2043403479E-12   0.3052975124E-13
   0.0000000000E+00   0.7885391880E+00   0.0000000000E+00   0.2490301695E+02   0.2190997104E-05   0.2190996957E-05  -0.7545227165E-12  -0.1312354074E-12  -0.2013418983E-13
   0.0000000000E+00  -0.2521605747E-13   0.7885391880E+00   0.2490301695E+02   0.2190997117E-05   0.2190996969E-05   0.7622583246E-12   0.1283464432E-12  -0.2047393127E-13
   0.1675000000E+01   0.1394467511E-13   0.7885391880E+00   0.2490301695E+02   0.2190996833E-05   0.2190996835E-05   0.6817832971E-12   0.2055614188E-12   0.3094069164E-13
   0.1675000000E+01   0.7885391880E+00   0.7885391880E+00   0.2490301695E+02   0.2190996852E-05   0.2190996851E-05  -0.2010082443E-12   0.6755178534E-12   0.3074002586E-13
   0.0000000000E+00   0.7885391880E+00   0.7885391880E+00   0.2490301695E+02   0.2190996816E-05   0.2190996667E-05  -0.1304615144E-12   0.7549022910E-12  -0.2019929162E-13
   0.3350000000E+01   0.1700690268E-13  -0.7453723527E-13   0.2490301696E+02   0.2190996892E-05   0.2190997045E-05   0.2029072786E-12  -0.6705429115E-12   0.7287294876E-13
   0.3350000000E+01   0.7885391880E+00  -0.1763320043E-13   0.2490301695E+02   0.2190996665E-05   0.2190996813E-05  -0.6834940561E-12  -0.2035816483E-12   0.7305943778E-13
   0.3350000000E+01   0.5010480447E-13   0.7885391880E+00   0.2490301695E+02   0.2190996584E-05   0.2190996732E-05   0.6760746099E-12   0.2100004772E-12   0.7277427554E-13
   0.3350000000E+01   0.7885391880E+00   0.7885391880E+00   0.2490301695E+02   0.2190997044E-05   0.2190997198E-05  -0.1967886338E-12   0.6699970558E-12   0.7296076455E-13
     1     2     3     4     5     6     7     8
     2     9    10     3     6    11    12     7
 VARIABLES = X,Y,Z,S11,S22,S33,S12,S13,S23
 ZONE, T="  0.1000D+02" F=FEPOINT, I=   12 J=    2 ET=BRICK
   0.0000000000E+00   0.0000000000E+00   0.0000000000E+00   0.4192058810E+02   0.2661056049E-05   0.2661047197E-05   0.3558822170E-10  -0.3810652510E-10  -0.5804195707E-13
   0.1750000000E+01   0.1190382086E-11  -0.1271792991E-11   0.4192058810E+02   0.2661051836E-05   0.2661051839E-05   0.3584221555E-10  -0.3784056491E-10   0.8820381860E-13
   0.1750000000E+01   0.7818906228E+00  -0.1190754614E-11   0.4192058810E+02   0.2661051871E-05   0.2661051875E-05  -0.3785526112E-10  -0.3585722100E-10   0.8845783586E-13
   0.0000000000E+00   0.7818906228E+00   0.0000000000E+00   0.4192058810E+02   0.2661056614E-05   0.2661047762E-05  -0.3812329746E-10  -0.3559543236E-10  -0.5830707289E-13
   0.0000000000E+00  -0.6455414057E-13   0.7818906228E+00   0.4192058810E+02   0.2661056489E-05   0.2661047638E-05   0.3810838639E-10   0.3559136376E-10  -0.5838513809E-13
   0.1750000000E+01   0.1207450275E-11   0.7818906228E+00   0.4192058810E+02   0.2661052102E-05   0.2661052105E-05   0.3785824050E-10   0.3586178469E-10   0.8798709003E-13
   0.1750000000E+01   0.7818906228E+00   0.7818906228E+00   0.4192058809E+02   0.2661051997E-05   0.2661052000E-05  -0.3584376639E-10   0.3783924435E-10   0.8824110716E-13
   0.0000000000E+00   0.7818906228E+00   0.7818906228E+00   0.4192058809E+02   0.2661055912E-05   0.2661047061E-05  -0.3557335616E-10   0.3810930390E-10  -0.5865025404E-13
   0.3500000000E+01   0.2385947688E-11  -0.2537844681E-11   0.4192058810E+02   0.2661047915E-05   0.2661056772E-05   0.3582182523E-10  -0.3784734178E-10   0.2148181748E-12
   0.3500000000E+01   0.7818906228E+00  -0.2387263442E-11   0.4192058810E+02   0.2661047098E-05   0.2661055955E-05  -0.3786160897E-10  -0.3585496560E-10   0.2143577663E-12
   0.3500000000E+01   0.2474342073E-11   0.7818906228E+00   0.4192058810E+02   0.2661046969E-05   0.2661055827E-05   0.3787828578E-10   0.3585946855E-10   0.2142507742E-12
   0.3500000000E+01   0.7818906228E+00   0.7818906228E+00   0.4192058809E+02   0.2661047400E-05   0.2661056257E-05  -0.3584398546E-10   0.3783322884E-10   0.2137903655E-12
     1     2     3     4     5     6     7     8
     2     9    10     3     6    11    12     7
 VARIABLES = X,Y,Z,S11,S22,S33,S12,S13,S23
 ZONE, T="  0.1050D+02" F=FEPOINT, I=   12 J=    2 ET=BRICK
   0.0000000000E+00   0.0000000000E+00   0.0000000000E+00   0.4089486325E+02   0.1025727553E+01   0.2694928090E-05   0.6476640740E+01   0.4633049290E-03   0.7337796269E-04
   0.1728456230E+01   0.2737499987E+00   0.1044867433E-04   0.4089471878E+02   0.1025905088E+01  -0.3895138368E-04   0.6477081417E+01   0.3224984139E-09  -0.2278014626E-08
   0.1606138321E+01   0.1046034881E+01   0.1044867438E-04   0.4089471878E+02   0.1025905088E+01  -0.3895138379E-04   0.6477081416E+01  -0.3953215344E-09   0.2266556094E-08
  -0.1223146413E+00   0.7722642518E+00   0.0000000000E+00   0.4089457348E+02   0.1026017326E+01   0.2694928776E-05   0.6477532567E+01   0.4633042104E-03   0.7338250714E-04
   0.1009849245E-13  -0.6375937198E-13   0.7818906228E+00   0.4089486325E+02   0.1025727553E+01   0.2694928560E-05   0.6476640740E+01  -0.4633049302E-03  -0.7337796300E-04
   0.1728456230E+01   0.2737499987E+00   0.7818801741E+00   0.4089471878E+02   0.1025905088E+01  -0.3895138341E-04   0.6477081416E+01  -0.3244309609E-09   0.2277783585E-08
   0.1606138321E+01   0.1046034881E+01   0.7818801741E+00   0.4089471877E+02   0.1025905088E+01  -0.3895138362E-04   0.6477081416E+01   0.3972263940E-09  -0.2266178753E-08
  -0.1223146413E+00   0.7722642518E+00   0.7818906228E+00   0.4089457347E+02   0.1026017326E+01   0.2694927826E-05   0.6477532566E+01  -0.4633042092E-03  -0.7338250706E-04
   0.3456909192E+01   0.5475206276E+00  -0.2537844681E-11   0.4089457348E+02   0.1026017326E+01   0.2694937743E-05   0.6477532568E+01  -0.4633042843E-03  -0.7338251868E-04
   0.3334594551E+01   0.1319784879E+01  -0.2387263442E-11   0.4089486325E+02   0.1025727553E+01   0.2694936953E-05   0.6476640739E+01  -0.4633050007E-03  -0.7337797389E-04
   0.3456909192E+01   0.5475206276E+00   0.7818906228E+00   0.4089457347E+02   0.1026017326E+01   0.2694936748E-05   0.6477532567E+01   0.4633042810E-03   0.7338251859E-04
   0.3334594551E+01   0.1319784879E+01   0.7818906228E+00   0.4089486324E+02   0.1025727553E+01   0.2694937330E-05   0.6476640738E+01   0.4633050039E-03   0.7337797482E-04
     1     2     3     4     5     6     7     8
     2     9    10     3     6    11    12     7
 VARIABLES = X,Y,Z,S11,S22,S33,S12,S13,S23
 ZONE, T="  0.1100D+02" F=FEPOINT, I=   12 J=    2 ET=BRICK
   0.0000000000E+00   0.0000000000E+00   0.0000000000E+00   0.3791786421E+02   0.4002726620E+01   0.2711342741E-05   0.1231968876E+02   0.5435247647E-03   0.1765983107E-03
   0.1664352836E+01   0.5407676379E+00   0.1272996182E-04   0.3791753201E+02   0.4003100024E+01  -0.4719112893E-04   0.1232013858E+02   0.1019293443E-08  -0.3259467794E-08
   0.1422727481E+01   0.1284414014E+01   0.1272996187E-04   0.3791753201E+02   0.4003100023E+01  -0.4719112890E-04   0.1232013858E+02  -0.1089429176E-08   0.3236756818E-08
  -0.2416174902E+00   0.7436221719E+00   0.0000000000E+00   0.3791719262E+02   0.4003398201E+01   0.2711343384E-05   0.1232061311E+02   0.5435226552E-03   0.1766048067E-03
   0.1994832649E-13  -0.6139463604E-13   0.7818906228E+00   0.3791786420E+02   0.4002726619E+01   0.2711343244E-05   0.1231968876E+02  -0.5435247658E-03  -0.1765983112E-03
   0.1664352836E+01   0.5407676379E+00   0.7818778929E+00   0.3791753201E+02   0.4003100023E+01  -0.4719112857E-04   0.1232013858E+02  -0.1021149714E-08   0.3258942058E-08
   0.1422727481E+01   0.1284414014E+01   0.7818778929E+00   0.3791753200E+02   0.4003100023E+01  -0.4719112868E-04   0.1232013857E+02   0.1091238728E-08  -0.3236090832E-08
  -0.2416174902E+00   0.7436221719E+00   0.7818906228E+00   0.3791719262E+02   0.4003398200E+01   0.2711342574E-05   0.1232061311E+02  -0.5435226540E-03  -0.1766048064E-03
   0.3328697807E+01   0.1081559480E+01  -0.2537844681E-11   0.3791719262E+02   0.4003398201E+01   0.2711352301E-05   0.1232061311E+02  -0.5435227264E-03  -0.1766048296E-03
   0.3087080317E+01   0.1825181652E+01  -0.2387263442E-11   0.3791786420E+02   0.4002726619E+01   0.2711351672E-05   0.1231968876E+02  -0.5435248338E-03  -0.1765983330E-03
   0.3328697807E+01   0.1081559480E+01   0.7818906228E+00   0.3791719262E+02   0.4003398201E+01   0.2711351352E-05   0.1232061311E+02   0.5435227231E-03   0.1766048290E-03
   0.3087080317E+01   0.1825181652E+01   0.7818906228E+00   0.3791786420E+02   0.4002726619E+01   0.2711351987E-05   0.1231968875E+02   0.5435248367E-03   0.1765983344E-03
     1     2     3     4     5     6     7     8
     2     9    10     3     6    11    12     7
 VARIABLES = X,Y,Z,S11,S22,S33,S12,S13,S23
 ZONE, T="  0.1150D+02" F=FEPOINT, I=   12 J=    2 ET=BRICK
   0.0000000000E+00   0.0000000000E+00   0.0000000000E+00   0.3328090815E+02   0.8639682680E+01   0.2711260727E-05   0.1695689749E+02   0.5087926114E-03   0.2592389575E-03
   0.1559267190E+01   0.7944720456E+00   0.1271960199E-04   0.3328045459E+02   0.8640177412E+01  -0.4715369412E-04   0.1695721601E+02   0.1514103245E-08  -0.3054940037E-08
   0.1204284730E+01   0.1491164350E+01   0.1271960204E-04   0.3328045458E+02   0.8640177411E+01  -0.4715369396E-04   0.1695721601E+02  -0.1579827694E-08   0.3021534377E-08
  -0.3549709146E+00   0.6966696461E+00   0.0000000000E+00   0.3327998454E+02   0.8640606279E+01   0.2711261413E-05   0.1695756852E+02   0.5087895168E-03   0.2592450336E-03
   0.2930696654E-13  -0.5751816041E-13   0.7818906228E+00   0.3328090814E+02   0.8639682679E+01   0.2711261514E-05   0.1695689748E+02  -0.5087926125E-03  -0.2592389582E-03
   0.1559267190E+01   0.7944720456E+00   0.7818779032E+00   0.3328045458E+02   0.8640177411E+01  -0.4715369421E-04   0.1695721601E+02  -0.1515876462E-08   0.3054119148E-08
   0.1204284730E+01   0.1491164350E+01   0.7818779032E+00   0.3328045458E+02   0.8640177410E+01  -0.4715369397E-04   0.1695721601E+02   0.1581522619E-08  -0.3020587337E-08
  -0.3549709146E+00   0.6966696461E+00   0.7818906228E+00   0.3327998454E+02   0.8640606278E+01   0.2711260699E-05   0.1695756852E+02  -0.5087895156E-03  -0.2592450332E-03
   0.3118522835E+01   0.1588966749E+01  -0.2537844681E-11   0.3327998455E+02   0.8640606279E+01   0.2711270614E-05   0.1695756852E+02  -0.5087895835E-03  -0.2592450674E-03
   0.2763551920E+01   0.2285636395E+01  -0.2387263442E-11   0.3328090814E+02   0.8639682678E+01   0.2711269687E-05   0.1695689748E+02  -0.5087926761E-03  -0.2592389903E-03
   0.3118522835E+01   0.1588966749E+01   0.7818906228E+00   0.3327998454E+02   0.8640606278E+01   0.2711269475E-05   0.1695756852E+02   0.5087895803E-03   0.2592450663E-03
   0.2763551920E+01   0.2285636395E+01   0.7818906228E+00   0.3328090814E+02   0.8639682677E+01   0.2711270133E-05   0.1695689748E+02   0.5087926788E-03   0.2592389922E-03
     1     2     3     4     5     6     7     8
     2     9    10     3     6    11    12     7
 VARIABLES = X,Y,Z,S11,S22,S33,S12,S13,S23
 ZONE, T="  0.1200D+02" F=FEPOINT, I=   12 J=    2 ET=BRICK
   0.0000000000E+00   0.0000000000E+00   0.0000000000E+00   0.2743792477E+02   0.1448266606E+02   0.2711228413E-05   0.1993424662E+02   0.4618249109E-03   0.3355312267E-03
   0.1415787211E+01   0.1028613908E+01   0.1271547996E-04   0.2743739616E+02   0.1448323583E+02  -0.4713879925E-04   0.1993440299E+02   0.1972060495E-08  -0.2778683023E-08
   0.9561884921E+00   0.1661197276E+01   0.1271548001E-04   0.2743739615E+02   0.1448323583E+02  -0.4713879934E-04   0.1993440299E+02  -0.2031750431E-08   0.2735407039E-08
  -0.4595837770E+00   0.6325628016E+00   0.0000000000E+00   0.2743683936E+02   0.1448375146E+02   0.2711228911E-05   0.1993459929E+02   0.4618209064E-03   0.3355367403E-03
   0.3794397180E-13  -0.5222539678E-13   0.7818906228E+00   0.2743792477E+02   0.1448266606E+02   0.2711228967E-05   0.1993424662E+02  -0.4618249118E-03  -0.3355312275E-03
   0.1415787211E+01   0.1028613908E+01   0.7818779073E+00   0.2743739615E+02   0.1448323583E+02  -0.4713879920E-04   0.1993440299E+02  -0.1973684952E-08   0.2777593877E-08
   0.9561884921E+00   0.1661197276E+01   0.7818779073E+00   0.2743739615E+02   0.1448323583E+02  -0.4713879921E-04   0.1993440298E+02   0.2033277331E-08  -0.2734206406E-08
  -0.4595837770E+00   0.6325628016E+00   0.7818906228E+00   0.2743683936E+02   0.1448375146E+02   0.2711228168E-05   0.1993459929E+02  -0.4618209053E-03  -0.3355367396E-03
   0.2831559480E+01   0.2057248383E+01  -0.2537844681E-11   0.2743683936E+02   0.1448375146E+02   0.2711237966E-05   0.1993459929E+02  -0.4618209670E-03  -0.3355367841E-03
   0.2371975703E+01   0.2689811185E+01  -0.2387263442E-11   0.2743792476E+02   0.1448266606E+02   0.2711237120E-05   0.1993424662E+02  -0.4618249697E-03  -0.3355312692E-03
   0.2831559480E+01   0.2057248383E+01   0.7818906228E+00   0.2743683936E+02   0.1448375146E+02   0.2711237135E-05   0.1993459929E+02   0.4618209641E-03   0.3355367825E-03
   0.2371975703E+01   0.2689811185E+01   0.7818906228E+00   0.2743792476E+02   0.1448266605E+02   0.2711237464E-05   0.1993424662E+02   0.4618249721E-03   0.3355312714E-03
     1     2     3     4     5     6     7     8
     2     9    10     3     6    11    12     7
 VARIABLES = X,Y,Z,S11,S22,S33,S12,S13,S23
 ZONE, T="  0.1250D+02" F=FEPOINT, I=   12 J=    2 ET=BRICK
   0.0000000000E+00   0.0000000000E+00   0.0000000000E+00   0.2096086605E+02   0.2095972478E+02   0.2711228575E-05   0.2096029270E+02   0.4036505423E-03   0.4036457237E-03
   0.1237445855E+01   0.1237427879E+01   0.1271548344E-04   0.2096031599E+02   0.2096031599E+02  -0.4713881210E-04   0.2096027170E+02   0.2382469041E-08  -0.2435971563E-08
   0.6845477178E+00   0.1790326016E+01   0.1271548349E-04   0.2096031599E+02   0.2096031599E+02  -0.4713881185E-04   0.2096027170E+02  -0.2434650462E-08   0.2383893860E-08
  -0.5528801615E+00   0.5528801615E+00   0.0000000000E+00   0.2095972478E+02   0.2096086604E+02   0.2711229053E-05   0.2096029270E+02   0.4036457246E-03   0.4036505430E-03
   0.4564667055E-13  -0.4564667055E-13   0.7818906228E+00   0.2096086604E+02   0.2095972478E+02   0.2711229140E-05   0.2096029270E+02  -0.4036505431E-03  -0.4036457246E-03
   0.1237445855E+01   0.1237427879E+01   0.7818779073E+00   0.2096031599E+02   0.2096031599E+02  -0.4713881209E-04   0.2096027170E+02  -0.2383893874E-08   0.2434650894E-08
   0.6845477178E+00   0.1790326016E+01   0.7818779073E+00   0.2096031599E+02   0.2096031599E+02  -0.4713881178E-04   0.2096027170E+02   0.2435968393E-08  -0.2382471327E-08
  -0.5528801615E+00   0.5528801615E+00   0.7818906228E+00   0.2095972478E+02   0.2096086604E+02   0.2711228055E-05   0.2096029270E+02  -0.4036457236E-03  -0.4036505422E-03
   0.2474873734E+01   0.2474873734E+01  -0.2537844681E-11   0.2095972478E+02   0.2096086604E+02   0.2711238174E-05   0.2096029270E+02  -0.4036457776E-03  -0.4036505958E-03
   0.1921993573E+01   0.3027753896E+01  -0.2387263442E-11   0.2096086604E+02   0.2095972478E+02   0.2711237126E-05   0.2096029270E+02  -0.4036505937E-03  -0.4036457749E-03
   0.2474873734E+01   0.2474873734E+01   0.7818906228E+00   0.2095972478E+02   0.2096086604E+02   0.2711237261E-05   0.2096029270E+02   0.4036457749E-03   0.4036505937E-03
   0.1921993573E+01   0.3027753896E+01   0.7818906228E+00   0.2096086604E+02   0.2095972478E+02   0.2711237565E-05   0.2096029270E+02   0.4036505957E-03   0.4036457775E-03
     1     2     3     4     5     6     7     8
     2     9    10     3     6    11    12     7
 VARIABLES = X,Y,Z,S11,S22,S33,S12,S13,S23
 ZONE, T="  0.1300D+02" F=FEPOINT, I=   12 J=    2 ET=BRICK
   0.0000000000E+00   0.0000000000E+00   0.0000000000E+00   0.1448375146E+02   0.2743683936E+02   0.2711228380E-05   0.1993459929E+02   0.3355370265E-03   0.4618213002E-03
   0.1028634475E+01   0.1415772269E+01   0.1271549083E-04   0.1448323583E+02   0.2743739616E+02  -0.4713883858E-04   0.1993440299E+02   0.2734209506E-08  -0.2033282809E-08
   0.3960511068E+00   0.1875370988E+01   0.1271549088E-04   0.1448323583E+02   0.2743739615E+02  -0.4713883862E-04   0.1993440299E+02  -0.2777604353E-08   0.1973680669E-08
  -0.6325628016E+00   0.4595837770E+00   0.0000000000E+00   0.1448266606E+02   0.2743792477E+02   0.2711229178E-05   0.1993424662E+02   0.3355315142E-03   0.4618253065E-03
   0.5222539678E-13  -0.3794397180E-13   0.7818906228E+00   0.1448375146E+02   0.2743683936E+02   0.2711229002E-05   0.1993459929E+02  -0.3355370271E-03  -0.4618213012E-03
   0.1028634475E+01   0.1415772269E+01   0.7818779073E+00   0.1448323583E+02   0.2743739615E+02  -0.4713883856E-04   0.1993440299E+02  -0.2735410959E-08   0.2031755321E-08
   0.3960511068E+00   0.1875370988E+01   0.7818779073E+00   0.1448323583E+02   0.2743739615E+02  -0.4713883869E-04   0.1993440298E+02   0.2778679359E-08  -0.1972075018E-08
  -0.6325628016E+00   0.4595837770E+00   0.7818906228E+00   0.1448266606E+02   0.2743792476E+02   0.2711228317E-05   0.1993424662E+02  -0.3355315134E-03  -0.4618253055E-03
   0.2057248383E+01   0.2831559480E+01  -0.2537844681E-11   0.1448266606E+02   0.2743792477E+02   0.2711238191E-05   0.1993424662E+02  -0.3355315583E-03  -0.4618253669E-03
   0.1424685581E+01   0.3291143257E+01  -0.2387263442E-11   0.1448375146E+02   0.2743683936E+02   0.2711237219E-05   0.1993459929E+02  -0.3355370693E-03  -0.4618213588E-03
   0.2057248383E+01   0.2831559480E+01   0.7818906228E+00   0.1448266606E+02   0.2743792476E+02   0.2711237322E-05   0.1993424662E+02   0.3355315560E-03   0.4618253645E-03
   0.1424685581E+01   0.3291143257E+01   0.7818906228E+00   0.1448375146E+02   0.2743683936E+02   0.2711238006E-05   0.1993459929E+02   0.3355370708E-03   0.4618213616E-03
     1     2     3     4     5     6     7     8
     2     9    10     3     6    11    12     7
 VARIABLES = X,Y,Z,S11,S22,S33,S12,S13,S23
 ZONE, T="  0.1350D+02" F=FEPOINT, I=   12 J=    2 ET=BRICK
   0.0000000000E+00   0.0000000000E+00   0.0000000000E+00   0.8640606130E+01   0.3327998470E+02   0.2711228461E-05   0.1695756841E+02   0.2591612413E-03   0.5086250697E-03
   0.7944946998E+00   0.1559255647E+01   0.1271549085E-04   0.8640177401E+01   0.3328045458E+02  -0.4713883871E-04   0.1695721602E+02   0.3018621410E-08  -0.1580527170E-08
   0.9780240317E-01   0.1914238102E+01   0.1271549090E-04   0.8640177400E+01   0.3328045458E+02  -0.4713883879E-04   0.1695721601E+02  -0.3052156412E-08   0.1514873974E-08
  -0.6966696461E+00   0.3549709146E+00   0.0000000000E+00   0.8639682828E+01   0.3328090800E+02   0.2711229154E-05   0.1695689759E+02   0.2591551702E-03   0.5086281644E-03
   0.5751816041E-13  -0.2930696654E-13   0.7818906228E+00   0.8640606129E+01   0.3327998469E+02   0.2711229002E-05   0.1695756841E+02  -0.2591612418E-03  -0.5086250708E-03
   0.7944946998E+00   0.1559255647E+01   0.7818779073E+00   0.8640177400E+01   0.3328045458E+02  -0.4713883870E-04   0.1695721601E+02  -0.3019570819E-08   0.1578827032E-08
   0.9780240317E-01   0.1914238102E+01   0.7818779073E+00   0.8640177399E+01   0.3328045458E+02  -0.4713883873E-04   0.1695721601E+02   0.3052972208E-08  -0.1513108931E-08
  -0.6966696461E+00   0.3549709146E+00   0.7818906228E+00   0.8639682827E+01   0.3328090799E+02   0.2711228403E-05   0.1695689759E+02  -0.2591551695E-03  -0.5086281633E-03
   0.1588966749E+01   0.3118522835E+01  -0.2537844681E-11   0.8639682828E+01   0.3328090800E+02   0.2711238257E-05   0.1695689759E+02  -0.2591552042E-03  -0.5086282309E-03
   0.8922971030E+00   0.3473493749E+01  -0.2387263442E-11   0.8640606129E+01   0.3327998469E+02   0.2711237324E-05   0.1695756841E+02  -0.2591612744E-03  -0.5086251343E-03
   0.1588966749E+01   0.3118522835E+01   0.7818906228E+00   0.8639682827E+01   0.3328090799E+02   0.2711237275E-05   0.1695689759E+02   0.2591552024E-03   0.5086282282E-03
   0.8922971030E+00   0.3473493749E+01   0.7818906228E+00   0.8640606128E+01   0.3327998469E+02   0.2711238056E-05   0.1695756841E+02   0.2591612755E-03   0.5086251373E-03
     1     2     3     4     5     6     7     8
     2     9    10     3     6    11    12     7
 VARIABLES = X,Y,Z,S11,S22,S33,S12,S13,S23
 ZONE, T="  0.1400D+02" F=FEPOINT, I=   12 J=    2 ET=BRICK
   0.0000000000E+00   0.0000000000E+00   0.0000000000E+00   0.4003397819E+01   0.3791719301E+02   0.2711228526E-05   0.1232061259E+02   0.1764040455E-03   0.5429048006E-03
   0.5407918287E+00   0.1664344976E+01   0.1271549084E-04   0.4003099977E+01   0.3791753201E+02  -0.4713883904E-04   0.1232013859E+02   0.3228705818E-08  -0.1088853685E-08
  -0.2028545202E+00   0.1905970322E+01   0.1271549089E-04   0.4003099976E+01   0.3791753200E+02  -0.4713883865E-04   0.1232013859E+02  -0.3251558857E-08   0.1018757466E-08
  -0.7436221719E+00   0.2416174902E+00   0.0000000000E+00   0.4002727001E+01   0.3791786382E+02   0.2711228941E-05   0.1231968928E+02   0.1763975650E-03   0.5429069075E-03
   0.6139463604E-13  -0.1994832649E-13   0.7818906228E+00   0.4003397819E+01   0.3791719300E+02   0.2711229301E-05   0.1232061258E+02  -0.1764040458E-03  -0.5429048018E-03
   0.5407918287E+00   0.1664344976E+01   0.7818779073E+00   0.4003099976E+01   0.3791753200E+02  -0.4713883892E-04   0.1232013859E+02  -0.3229378626E-08   0.1087021426E-08
  -0.2028545202E+00   0.1905970322E+01   0.7818779073E+00   0.4003099976E+01   0.3791753200E+02  -0.4713883850E-04   0.1232013859E+02   0.3252086430E-08  -0.1016892481E-08
  -0.7436221719E+00   0.2416174902E+00   0.7818906228E+00   0.4002727001E+01   0.3791786382E+02   0.2711228193E-05   0.1231968928E+02  -0.1763975645E-03  -0.5429069063E-03
   0.1081559480E+01   0.3328697807E+01  -0.2537844681E-11   0.4002727001E+01   0.3791786382E+02   0.2711238371E-05   0.1231968928E+02  -0.1763975882E-03  -0.5429069786E-03
   0.3379373084E+00   0.3570315297E+01  -0.2387263442E-11   0.4003397819E+01   0.3791719300E+02   0.2711237401E-05   0.1232061258E+02  -0.1764040681E-03  -0.5429048696E-03
   0.1081559480E+01   0.3328697807E+01   0.7818906228E+00   0.4002727001E+01   0.3791786382E+02   0.2711237465E-05   0.1231968928E+02   0.1763975868E-03   0.5429069756E-03
   0.3379373084E+00   0.3570315297E+01   0.7818906228E+00   0.4003397818E+01   0.3791719300E+02   0.2711238026E-05   0.1232061258E+02   0.1764040687E-03   0.5429048728E-03
     1     2     3     4     5     6     7     8
     2     9    10     3     6    11    12     7
 VARIABLES = X,Y,Z,S11,S22,S33,S12,S13,S23
 ZONE, T="  0.1450D+02" F=FEPOINT, I=   12 J=    2 ET=BRICK
   0.0000000000E+00   0.0000000000E+00   0.0000000000E+00   0.1026048790E+01   0.4089454204E+02   0.2711228420E-05   0.6477629355E+01   0.8930319692E-04   0.5638164141E-03
   0.2737728679E+00   0.1728452608E+01   0.1271549084E-04   0.1025913005E+01   0.4089471898E+02  -0.4713883877E-04   0.6477080163E+01   0.3359289191E-08  -0.5703672175E-09
  -0.4985164921E+00   0.1850771226E+01   0.1271549089E-04   0.1025913005E+01   0.4089471898E+02  -0.4713883859E-04   0.6477080163E+01  -0.3370895632E-08   0.4975595258E-09
  -0.7722642518E+00   0.1223146413E+00   0.0000000000E+00   0.1025696121E+01   0.4089489470E+02   0.2711229018E-05   0.6476543948E+01   0.8929646661E-04   0.5638174813E-03
   0.6375937198E-13  -0.1009849245E-13   0.7818906228E+00   0.1026048790E+01   0.4089454203E+02   0.2711229073E-05   0.6477629354E+01  -0.8930319699E-04  -0.5638164154E-03
   0.2737728679E+00   0.1728452608E+01   0.7818779073E+00   0.1025913005E+01   0.4089471898E+02  -0.4713883877E-04   0.6477080163E+01  -0.3359667051E-08   0.5684528622E-09
  -0.4985164921E+00   0.1850771226E+01   0.7818779073E+00   0.1025913004E+01   0.4089471897E+02  -0.4713883854E-04   0.6477080162E+01   0.3371124923E-08  -0.4956346141E-09
  -0.7722642518E+00   0.1223146413E+00   0.7818906228E+00   0.1025696120E+01   0.4089489470E+02   0.2711228298E-05   0.6476543948E+01  -0.8929646630E-04  -0.5638174801E-03
   0.5475206276E+00   0.3456909192E+01  -0.2537844681E-11   0.1025696121E+01   0.4089489470E+02   0.2711238150E-05   0.6476543949E+01  -0.8929647846E-04  -0.5638175551E-03
  -0.2247436241E+00   0.3579223833E+01  -0.2387263442E-11   0.1026048790E+01   0.4089454203E+02   0.2711237121E-05   0.6477629354E+01  -0.8930320843E-04  -0.5638164858E-03
   0.5475206276E+00   0.3456909192E+01   0.7818906228E+00   0.1025696120E+01   0.4089489470E+02   0.2711237486E-05   0.6476543948E+01   0.8929647752E-04   0.5638175519E-03
  -0.2247436241E+00   0.3579223833E+01   0.7818906228E+00   0.1026048790E+01   0.4089454203E+02   0.2711237937E-05   0.6477629353E+01   0.8930320851E-04   0.5638164890E-03
     1     2     3     4     5     6     7     8
     2     9    10     3     6    11    12     7
 VARIABLES = X,Y,Z,S11,S22,S33,S12,S13,S23
 ZONE, T="  0.1500D+02" F=FEPOINT, I=   12 J=    2 ET=BRICK
   0.0000000000E+00   0.0000000000E+00   0.0000000000E+00   0.2711239995E-05   0.4192058812E+02   0.2711228583E-05   0.5706316631E-03   0.3407249270E-08   0.5708449963E-03
   0.1271061068E-04   0.1750000000E+01   0.1271549084E-04   0.4428805882E-04   0.4192058770E+02  -0.4713883871E-04  -0.3587329469E-10   0.3407155429E-08  -0.3783112223E-10
  -0.7819033334E+00   0.1750000000E+01   0.1271549089E-04   0.4428805900E-04   0.4192058769E+02  -0.4713883851E-04   0.3786013083E-10  -0.3407229488E-08  -0.3589185627E-10
  -0.7818906228E+00   0.0000000000E+00   0.0000000000E+00   0.2711240453E-05   0.4192058811E+02   0.2711229038E-05  -0.5706316618E-03  -0.3407133013E-08   0.5708449975E-03
   0.6455414057E-13  -0.7888609052E-29   0.7818906228E+00   0.2711240499E-05   0.4192058811E+02   0.2711229086E-05   0.5706316617E-03  -0.3407133071E-08  -0.5708449975E-03
   0.1271061069E-04   0.1750000000E+01   0.7818779073E+00   0.4428805884E-04   0.4192058769E+02  -0.4713883867E-04  -0.3783710871E-10  -0.3407229957E-08   0.3589086639E-10
  -0.7819033334E+00   0.1750000000E+01   0.7818779073E+00   0.4428805898E-04   0.4192058769E+02  -0.4713883852E-04   0.3587227764E-10   0.3407155465E-08   0.3782701562E-10
  -0.7818906228E+00   0.1110223025E-15   0.7818906228E+00   0.2711239644E-05   0.4192058811E+02   0.2711228231E-05  -0.5706316630E-03   0.3407249885E-08  -0.5708449962E-03
  -0.2386091325E-11   0.3500000000E+01  -0.2537844681E-11   0.2711231605E-05   0.4192058811E+02   0.2711237904E-05  -0.5706317344E-03   0.3406979940E-08  -0.5708450723E-03
  -0.7818906228E+00   0.3500000000E+01  -0.2387263442E-11   0.2711230695E-05   0.4192058811E+02   0.2711236990E-05   0.5706317378E-03  -0.3407408447E-08  -0.5708450689E-03
  -0.2473132810E-11   0.3500000000E+01   0.7818906228E+00   0.2711231097E-05   0.4192058811E+02   0.2711237395E-05  -0.5706317377E-03  -0.3407406101E-08   0.5708450689E-03
  -0.7818906228E+00   0.3500000000E+01   0.7818906228E+00   0.2711231724E-05   0.4192058810E+02   0.2711238017E-05   0.5706317343E-03   0.3406978668E-08   0.5708450721E-03
     1     2     3     4     5     6     7     8
     2     9    10     3     6    11    12     7
