 VARIABLES = X,Y,Z,DU1,DU2,DU3,U1,U2,U3,S11,S22,S33,S12,S13,S23
 ZONE, T="  0.2500D-01" F=FEPOINT, I=    8 J=    1 ET=BRICK
   0.0000000000E+00   0.7497578660E-04   0.7497579146E-04   0.0000000000E+00   0.1499028268E-06   0.1499030499E-06   0.0000000000E+00   0.7482588377E-04   0.7482588841E-04   0.3492137271E+02  -0.1031097812E-05  -0.5209099397E-05  -0.2879564088E-05  -0.2068711337E-05  -0.9020204322E-06
   0.1000500000E+01   0.7497543135E-04   0.7497564937E-04   0.1000000000E-05   0.1499026444E-06   0.1499022097E-06   0.4990000000E-03   0.7482552871E-04   0.7482574716E-04   0.3492141198E+02   0.3939221455E-05  -0.8769124777E-06  -0.3612404085E-05  -0.2377365067E-05   0.1008469120E-06
   0.1000500000E+01   0.9999250246E+00   0.7497550324E-04   0.1000000000E-05  -0.1499029084E-06   0.1499020928E-06   0.4990000000E-03  -0.7482549521E-04   0.7482560115E-04   0.3492141161E+02   0.2838255885E-05   0.2704908982E-05   0.3036706016E-05  -0.1339461783E-05  -0.2176622005E-05
   0.0000000000E+00   0.9999250242E+00   0.7497568054E-04   0.0000000000E+00  -0.1499025628E-06   0.1499032613E-06   0.0000000000E+00  -0.7482592483E-04   0.7482577728E-04   0.3492139506E+02  -0.1630823167E-05   0.5084127882E-07   0.2990087951E-05  -0.1390819031E-05  -0.1407382771E-05
   0.0000000000E+00   0.7497566030E-04   0.9999250241E+00   0.0000000000E+00   0.1499034820E-06  -0.1499033402E-06   0.0000000000E+00   0.7482575682E-04  -0.7482602735E-04   0.3492137425E+02  -0.2044828407E-05  -0.5198888651E-05  -0.3553231587E-05  -0.1860055722E-05   0.1732432932E-05
   0.1000500000E+01   0.7497572984E-04   0.9999250245E+00   0.1000000000E-05   0.1499016604E-06  -0.1499019194E-06   0.4990000000E-03   0.7482582818E-04  -0.7482561577E-04   0.3492137468E+02  -0.1429201747E-05  -0.7543041594E-06   0.8187576401E-06   0.6115478681E-05   0.2225923610E-05
   0.1000500000E+01   0.9999250244E+00   0.9999250245E+00   0.1000000000E-05  -0.1499013768E-06  -0.1499023525E-06   0.4990000000E-03  -0.7482573199E-04  -0.7482557704E-04   0.3492140210E+02  -0.5632864523E-06   0.5759549387E-05   0.2339933421E-05   0.3433337570E-05  -0.4663220359E-06
   0.0000000000E+00   0.9999250243E+00   0.9999250243E+00   0.0000000000E+00  -0.1499037656E-06  -0.1499030015E-06   0.0000000000E+00  -0.7482584544E-04  -0.7482579382E-04   0.3492139687E+02  -0.1635928241E-05   0.1966255467E-05   0.8452477782E-06  -0.5324644540E-06   0.8931542432E-06
     1     2     3     4     5     6     7     8
 VARIABLES = X,Y,Z,DU1,DU2,DU3,U1,U2,U3,S11,S22,S33,S12,S13,S23
 ZONE, T="  0.5000D-01" F=FEPOINT, I=    8 J=    1 ET=BRICK
   0.0000000000E+00   0.1499027291E-03   0.1499027342E-03   0.0000000000E+00   0.1498054295E-06   0.1498053297E-06   0.0000000000E+00   0.1497529237E-03   0.1497529289E-03   0.6989517811E+02  -0.1053276074E-05  -0.5189743041E-05  -0.2850183505E-05  -0.2092748962E-05  -0.9521263939E-06
   0.1001000000E+01   0.1499023697E-03   0.1499025878E-03   0.1000000000E-05   0.1498052126E-06   0.1498053134E-06   0.9990000000E-03   0.1497525645E-03   0.1497527825E-03   0.6989521738E+02   0.3959921838E-05  -0.9038491724E-06  -0.3583023469E-05  -0.2401402689E-05   0.1355347293E-06
   0.1001000000E+01   0.9998500977E+00   0.1499024490E-03   0.1000000000E-05  -0.1498052544E-06   0.1498053073E-06   0.9990000000E-03  -0.1497525267E-03   0.1497526437E-03   0.6989521702E+02   0.2866128436E-05   0.2662853599E-05   0.3087851790E-05  -0.1267092131E-05  -0.2200747830E-05
   0.0000000000E+00   0.9998500972E+00   0.1499026150E-03   0.0000000000E+00  -0.1498053878E-06   0.1498053348E-06   0.0000000000E+00  -0.1497529691E-03   0.1497528096E-03   0.6989520045E+02  -0.1673171095E-05   0.1095459543E-06   0.3041233721E-05  -0.1318449340E-05  -0.1385829844E-05
   0.0000000000E+00   0.1499025950E-03   0.9998500971E+00   0.0000000000E+00   0.1498052350E-06  -0.1498053713E-06   0.0000000000E+00   0.1497527898E-03  -0.1497530637E-03   0.6989517960E+02  -0.1971389958E-05  -0.5227269460E-05  -0.3535342302E-05  -0.1906951607E-05   0.1711800751E-05
   0.1001000000E+01   0.1499026757E-03   0.9998500975E+00   0.1000000000E-05   0.1498054080E-06  -0.1498052718E-06   0.9990000000E-03   0.1497528702E-03  -0.1497526553E-03   0.6989518012E+02  -0.1486964169E-05  -0.7414401298E-06   0.8366475227E-06   0.6068583025E-05   0.2249093954E-05
   0.1001000000E+01   0.9998500974E+00   0.9998500976E+00   0.1000000000E-05  -0.1498053663E-06  -0.1498053489E-06   0.9990000000E-03  -0.1497527783E-03  -0.1497526152E-03   0.6989520755E+02  -0.6138209852E-06   0.5757238728E-05   0.2248755300E-05   0.3441937208E-05  -0.5018059719E-06
   0.0000000000E+00   0.9998500973E+00   0.9998500974E+00   0.0000000000E+00  -0.1498052766E-06  -0.1498052931E-06   0.0000000000E+00  -0.1497528741E-03  -0.1497528305E-03   0.6989520221E+02  -0.1582748596E-05   0.1977312103E-05   0.7540693352E-06  -0.5238649004E-06   0.9440841957E-06
     1     2     3     4     5     6     7     8
 VARIABLES = X,Y,Z,DU1,DU2,DU3,U1,U2,U3,S11,S22,S33,S12,S13,S23
 ZONE, T="  0.7500D-01" F=FEPOINT, I=    8 J=    1 ET=BRICK
   0.0000000000E+00   0.2247810319E-03   0.2247810363E-03   0.0000000000E+00   0.1497080995E-06   0.1497081033E-06   0.0000000000E+00   0.2246313238E-03   0.2246313282E-03   0.1048515184E+03  -0.1056271111E-05  -0.5187936051E-05  -0.2857296302E-05  -0.2090482806E-05  -0.9540862751E-06
   0.1001500000E+01   0.2247806715E-03   0.2247808903E-03   0.1000000000E-05   0.1497081022E-06   0.1497080984E-06   0.1499000000E-02   0.2246309634E-03   0.2246311822E-03   0.1048515577E+03   0.3963674307E-05  -0.9049975221E-06  -0.3590136250E-05  -0.2399136548E-05   0.1377705610E-06
   0.1001500000E+01   0.9997752194E+00   0.2247807510E-03   0.1000000000E-05  -0.1497080958E-06   0.1497081034E-06   0.1499000000E-02  -0.2246309260E-03   0.2246310429E-03   0.1048515573E+03   0.2869506722E-05   0.2661659436E-05   0.3088052609E-05  -0.1271940008E-05  -0.2202655482E-05
   0.0000000000E+00   0.9997752189E+00   0.2247809175E-03   0.0000000000E+00  -0.1497081060E-06   0.1497080984E-06   0.0000000000E+00  -0.2246313688E-03   0.2246312094E-03   0.1048515408E+03  -0.1676389318E-05   0.1107673931E-06   0.3041434551E-05  -0.1323297161E-05  -0.1383367688E-05
   0.0000000000E+00   0.2247808969E-03   0.9997752188E+00   0.0000000000E+00   0.1497081023E-06  -0.1497080968E-06   0.0000000000E+00   0.2246311888E-03  -0.2246314634E-03   0.1048515199E+03  -0.1968432230E-05  -0.5228388689E-05  -0.3531039334E-05  -0.1902286122E-05   0.1709256540E-05
   0.1001500000E+01   0.2247809783E-03   0.9997752192E+00   0.1000000000E-05   0.1497080995E-06  -0.1497081049E-06   0.1499000000E-02   0.2246312702E-03  -0.2246310546E-03   0.1048515204E+03  -0.1488934976E-05  -0.7391665629E-06   0.8409512140E-06   0.6073248831E-05   0.2251076229E-05
   0.1001500000E+01   0.9997752191E+00   0.9997752193E+00   0.1000000000E-05  -0.1497081060E-06  -0.1497080969E-06   0.1499000000E-02  -0.2246311779E-03  -0.2246310148E-03   0.1048515479E+03  -0.6160707846E-06   0.5759370962E-05   0.2251359923E-05   0.3439848018E-05  -0.5038646705E-06
   0.0000000000E+00   0.9997752190E+00   0.9997752191E+00   0.0000000000E+00  -0.1497080957E-06  -0.1497081049E-06   0.0000000000E+00  -0.2246312735E-03  -0.2246312298E-03   0.1048515425E+03  -0.1580103564E-05   0.1975696799E-05   0.7566735891E-06  -0.5259541924E-06   0.9458965249E-06
     1     2     3     4     5     6     7     8
 VARIABLES = X,Y,Z,DU1,DU2,DU3,U1,U2,U3,S11,S22,S33,S12,S13,S23
 ZONE, T="  0.1000D+00" F=FEPOINT, I=    8 J=    1 ET=BRICK
   0.0000000000E+00   0.2996108021E-03   0.2996108065E-03   0.0000000000E+00   0.1496125382E-06   0.1496125385E-06   0.0000000000E+00   0.2994611895E-03   0.2994611940E-03   0.1397903769E+03  -0.1008746337E-05  -0.5140359493E-05  -0.2857849104E-05  -0.2090746718E-05  -0.9538047846E-06
   0.1002000000E+01   0.2996104417E-03   0.2996106604E-03   0.1000000000E-05   0.1496125392E-06   0.1496125388E-06   0.1999000000E-02   0.2994608291E-03   0.2994610479E-03   0.1397904162E+03   0.4010628186E-05  -0.8580171232E-06  -0.3590688808E-05  -0.2399400383E-05   0.1377118526E-06
   0.1002000000E+01   0.9997003896E+00   0.2996105212E-03   0.1000000000E-05  -0.1496125393E-06   0.1496125386E-06   0.1999000000E-02  -0.2994607917E-03   0.2994609087E-03   0.1397904159E+03   0.2916188209E-05   0.2708318459E-05   0.3088345907E-05  -0.1272475601E-05  -0.2202096191E-05
   0.0000000000E+00   0.9997003892E+00   0.2996106877E-03   0.0000000000E+00  -0.1496125381E-06   0.1496125388E-06   0.0000000000E+00  -0.2994612345E-03   0.2994610752E-03   0.1397903993E+03  -0.1629099088E-05   0.1581047438E-06   0.3041727848E-05  -0.1323832710E-05  -0.1383280433E-05
   0.0000000000E+00   0.2996106671E-03   0.9997003891E+00   0.0000000000E+00   0.1496125391E-06  -0.1496125385E-06   0.0000000000E+00   0.2994610546E-03  -0.2994613292E-03   0.1397903784E+03  -0.1921034218E-05  -0.5180708475E-05  -0.3531511358E-05  -0.1901738739E-05   0.1709056194E-05
   0.1002000000E+01   0.2996107485E-03   0.9997003895E+00   0.1000000000E-05   0.1496125381E-06  -0.1496125388E-06   0.1999000000E-02   0.2994611359E-03  -0.2994609203E-03   0.1397903789E+03  -0.1441573022E-05  -0.6921305038E-06   0.8404787303E-06   0.6073794346E-05   0.2250553400E-05
   0.1002000000E+01   0.9997003893E+00   0.9997003895E+00   0.1000000000E-05  -0.1496125380E-06  -0.1496125386E-06   0.1999000000E-02  -0.2994610436E-03  -0.2994608806E-03   0.1397904064E+03  -0.5687201377E-06   0.5806122836E-05   0.2252091552E-05   0.3440100490E-05  -0.5036345643E-06
   0.0000000000E+00   0.9997003892E+00   0.9997003893E+00   0.0000000000E+00  -0.1496125392E-06  -0.1496125387E-06   0.0000000000E+00  -0.2994611393E-03  -0.2994610956E-03   0.1397904010E+03  -0.1533055073E-05   0.2023238793E-05   0.7574052396E-06  -0.5257007233E-06   0.9454790149E-06
     1     2     3     4     5     6     7     8
 VARIABLES = X,Y,Z,DU1,DU2,DU3,U1,U2,U3,S11,S22,S33,S12,S13,S23
 ZONE, T="  0.1250D+00" F=FEPOINT, I=    8 J=    1 ET=BRICK
   0.0000000000E+00   0.3863829457E-03   0.3863829142E-03   0.0000000000E+00   0.2268443599E-06   0.2268443475E-06   0.0000000000E+00   0.3861561014E-03   0.3861560698E-03   0.1663658213E+03   0.2321097155E-04   0.2176127449E-04  -0.9215947177E-06  -0.5010557084E-06   0.3619115750E-07
   0.1002500000E+01   0.3863829021E-03   0.3863829787E-03   0.1000000000E-05   0.2268444960E-06   0.2268444578E-06   0.2499000000E-02   0.3861560576E-03   0.3861561342E-03   0.1663658431E+03   0.3634243950E-04   0.3540905200E-04  -0.1612749200E-05  -0.7921521039E-06  -0.2129197928E-06
   0.1002500000E+01   0.9996136171E+00   0.3863828870E-03   0.1000000000E-05  -0.2268444961E-06   0.2268444739E-06   0.2499000000E-02  -0.3861560202E-03   0.3861560425E-03   0.1663658438E+03   0.3632866542E-04   0.3681816370E-04   0.1139098680E-05  -0.6552779491E-07  -0.2471870585E-06
   0.0000000000E+00   0.9996136170E+00   0.3863829607E-03   0.0000000000E+00  -0.2268443598E-06   0.2268443918E-06   0.0000000000E+00  -0.3861561464E-03   0.3861561163E-03   0.1663658333E+03   0.3009987460E-04   0.2991444965E-04   0.1095132112E-05  -0.1139639543E-06  -0.8113164828E-07
   0.0000000000E+00   0.3863829041E-03   0.9996136170E+00   0.0000000000E+00   0.2268443794E-06  -0.2268443474E-06   0.0000000000E+00   0.3861560597E-03  -0.3861562050E-03   0.1663658217E+03   0.2316009230E-04   0.2195718945E-04  -0.2499212571E-05  -0.3264406556E-05   0.3882818194E-06
   0.1002500000E+01   0.3863829721E-03   0.9996136171E+00   0.1000000000E-05   0.2268444357E-06  -0.2268444579E-06   0.2499000000E-02   0.3861561277E-03  -0.3861560067E-03   0.1663658240E+03   0.2413374550E-04   0.2415464316E-04   0.1624099334E-05   0.4257478162E-05   0.2929961200E-06
   0.1002500000E+01   0.9996136171E+00   0.9996136171E+00   0.1000000000E-05  -0.2268444357E-06  -0.2268444739E-06   0.2499000000E-02  -0.3861560353E-03  -0.3861560144E-03   0.1663658390E+03   0.3288864221E-04   0.3524206794E-04   0.1292447550E-05   0.2109926933E-05  -0.1319980706E-06
   0.0000000000E+00   0.9996136170E+00   0.9996136170E+00   0.0000000000E+00  -0.2268443795E-06  -0.2268443918E-06   0.0000000000E+00  -0.3861561443E-03  -0.3861561366E-03   0.1663658346E+03   0.3076466925E-04   0.3167226747E-04  -0.1172211969E-06  -0.1630298945E-05  -0.4415219238E-07
     1     2     3     4     5     6     7     8
 VARIABLES = X,Y,Z,DU1,DU2,DU3,U1,U2,U3,S11,S22,S33,S12,S13,S23
 ZONE, T="  0.1500D+00" F=FEPOINT, I=    8 J=    1 ET=BRICK
   0.0000000000E+00   0.5013362436E-03   0.5013362107E-03   0.0000000000E+00   0.2327454758E-06   0.2327454717E-06   0.0000000000E+00   0.5011034982E-03   0.5011034653E-03   0.1730913403E+03   0.6717970140E-05   0.5600296367E-05  -0.6715009816E-06  -0.3328279982E-06   0.5771690336E-07
   0.1003000000E+01   0.5013362143E-03   0.5013362864E-03   0.1000000000E-05   0.2327455159E-06   0.2327455012E-06   0.2999000000E-02   0.5011034688E-03   0.5011035409E-03   0.1730913605E+03   0.2067137374E-04   0.2001472810E-04  -0.1242304788E-05  -0.5732358128E-06  -0.1847446466E-06
   0.1003000000E+01   0.9994986638E+00   0.5013361965E-03   0.1000000000E-05  -0.2327455159E-06   0.2327455068E-06   0.2999000000E-02  -0.5011034315E-03   0.5011034510E-03   0.1730913612E+03   0.2084140748E-04   0.2126344068E-04   0.8511837529E-06   0.1714384944E-07  -0.1467311385E-06
   0.0000000000E+00   0.9994986637E+00   0.5013362625E-03   0.0000000000E+00  -0.2327454757E-06   0.2327454886E-06   0.0000000000E+00  -0.5011035432E-03   0.5011035170E-03   0.1730913514E+03   0.1419278844E-04   0.1398418975E-04   0.8148730513E-06  -0.2285815569E-07  -0.2729693724E-07
   0.0000000000E+00   0.5013362046E-03   0.9994986637E+00   0.0000000000E+00   0.2327454845E-06  -0.2327454716E-06   0.0000000000E+00   0.5011034591E-03  -0.5011036004E-03   0.1730913406E+03   0.6726942445E-05   0.5789342169E-05  -0.2001604514E-05  -0.2776893624E-05   0.2808017823E-06
   0.1003000000E+01   0.5013362770E-03   0.9994986638E+00   0.1000000000E-05   0.2327454921E-06  -0.2327455013E-06   0.2999000000E-02   0.5011035315E-03  -0.5011034134E-03   0.1730913427E+03   0.7946942510E-05   0.7946054638E-05   0.1403716266E-05   0.3435206714E-05   0.1846661838E-06
   0.1003000000E+01   0.9994986638E+00   0.9994986638E+00   0.1000000000E-05  -0.2327454921E-06  -0.2327455068E-06   0.2999000000E-02  -0.5011034391E-03  -0.5011034229E-03   0.1730913568E+03   0.1740978161E-04   0.1923881594E-04   0.1004920410E-05   0.1671202998E-05  -0.9995064626E-07
   0.0000000000E+00   0.9994986637E+00   0.9994986637E+00   0.0000000000E+00  -0.2327454844E-06  -0.2327454886E-06   0.0000000000E+00  -0.5011035437E-03  -0.5011035374E-03   0.1730913527E+03   0.1497020259E-04   0.1564055608E-04  -0.1592832138E-06  -0.1417737999E-05  -0.6438859427E-07
     1     2     3     4     5     6     7     8
 VARIABLES = X,Y,Z,DU1,DU2,DU3,U1,U2,U3,S11,S22,S33,S12,S13,S23
 ZONE, T="  0.1750D+00" F=FEPOINT, I=    8 J=    1 ET=BRICK
   0.0000000000E+00   0.6201739964E-03   0.6201739582E-03   0.0000000000E+00   0.2447595769E-06   0.2447595560E-06   0.0000000000E+00   0.6199292368E-03   0.6199291987E-03   0.1770365403E+03   0.3269648646E-04   0.3210312178E-04  -0.2221271463E-06   0.1805228200E-07   0.1615117344E-06
   0.1003500000E+01   0.6201740199E-03   0.6201740736E-03   0.1000000000E-05   0.2447597957E-06   0.2447597232E-06   0.3499000000E-02   0.6199292601E-03   0.6199293139E-03   0.1770365574E+03   0.4815750186E-04   0.4808507205E-04  -0.6878547155E-06  -0.1781001307E-06  -0.1892545028E-06
   0.1003500000E+01   0.9993798260E+00   0.6201739906E-03   0.1000000000E-05  -0.2447597957E-06   0.2447597505E-06   0.3499000000E-02  -0.6199292228E-03   0.6199292308E-03   0.1770365580E+03   0.4864034678E-04   0.4906165547E-04   0.3687621073E-06   0.2633573671E-06   0.1122105299E-06
   0.0000000000E+00   0.9993798260E+00   0.6201740314E-03   0.0000000000E+00  -0.2447595770E-06   0.2447596405E-06   0.0000000000E+00  -0.6199292819E-03   0.6199292718E-03   0.1770365498E+03   0.4133028252E-04   0.4093124395E-04   0.3391356520E-06   0.2307191115E-06   0.1368208945E-06
   0.0000000000E+00   0.6201739683E-03   0.9993798259E+00   0.0000000000E+00   0.2447596197E-06  -0.2447595561E-06   0.0000000000E+00   0.6199292086E-03  -0.6199293339E-03   0.1770365405E+03   0.3282007542E-04   0.3228422045E-04  -0.1420077981E-05  -0.2555292390E-05   0.6987604030E-07
   0.1003500000E+01   0.6201740527E-03   0.9993798261E+00   0.1000000000E-05   0.2447596779E-06  -0.2447597233E-06   0.3499000000E-02   0.6199292931E-03  -0.6199291865E-03   0.1770365422E+03   0.3445565323E-04   0.3437763117E-04   0.1358376356E-05   0.2513256515E-05  -0.8114876865E-07
   0.1003500000E+01   0.9993798260E+00   0.9993798260E+00   0.1000000000E-05  -0.2447596779E-06  -0.2447597504E-06   0.3499000000E-02  -0.6199292006E-03  -0.6199292026E-03   0.1770365545E+03   0.4517777619E-04   0.4620646751E-04   0.6068388529E-06   0.1114161008E-05  -0.4296326346E-07
   0.0000000000E+00   0.9993798259E+00   0.9993798259E+00   0.0000000000E+00  -0.2447596194E-06  -0.2447596403E-06   0.0000000000E+00  -0.6199292932E-03  -0.6199292920E-03   0.1770365511E+03   0.4224542855E-04   0.4247414599E-04  -0.3430531082E-06  -0.1406153732E-05  -0.1671049839E-06
     1     2     3     4     5     6     7     8
 VARIABLES = X,Y,Z,DU1,DU2,DU3,U1,U2,U3,S11,S22,S33,S12,S13,S23
 ZONE, T="  0.2000D+00" F=FEPOINT, I=    8 J=    1 ET=BRICK
   0.0000000000E+00   0.7514018504E-03   0.7514017823E-03   0.0000000000E+00   0.2911473035E-06   0.2911471717E-06   0.0000000000E+00   0.7511107031E-03   0.7511106351E-03   0.1722562610E+03   0.1446042476E-03   0.1458077388E-03   0.3128817950E-05   0.3142473733E-05   0.6816485981E-06
   0.1004000000E+01   0.7514023402E-03   0.7514023001E-03   0.1000000000E-05   0.2911509021E-06   0.2911505450E-06   0.3999000000E-02   0.7511111893E-03   0.7511111496E-03   0.1722562600E+03   0.1688383930E-03   0.1711308224E-03   0.2769784433E-05   0.2991257862E-05  -0.3137705589E-06
   0.1004000000E+01   0.9992485977E+00   0.7514022556E-03   0.1000000000E-05  -0.2911509024E-06   0.2911507121E-06   0.3999000000E-02  -0.7511111521E-03   0.7511111049E-03   0.1722562596E+03   0.1708871060E-03   0.1715476470E-03  -0.3015751954E-05   0.3141192249E-05   0.1260606285E-05
   0.0000000000E+00   0.9992485981E+00   0.7514019648E-03   0.0000000000E+00  -0.2911473037E-06   0.2911475889E-06   0.0000000000E+00  -0.7511107482E-03   0.7511108172E-03   0.1722562644E+03   0.1577394056E-03   0.1563172042E-03  -0.3038591504E-05   0.3116031439E-05   0.9357143235E-06
   0.0000000000E+00   0.7514018718E-03   0.9992485981E+00   0.0000000000E+00   0.2911474572E-06  -0.2911471718E-06   0.0000000000E+00   0.7511107243E-03  -0.7511107703E-03   0.1722562611E+03   0.1450591363E-03   0.1457608354E-03   0.1671788890E-05  -0.5098429908E-05  -0.7764733725E-06
   0.1004000000E+01   0.7514022240E-03   0.9992485978E+00   0.1000000000E-05   0.2911503550E-06  -0.2911505453E-06   0.3999000000E-02   0.7511110736E-03  -0.7511110223E-03   0.1722562541E+03   0.1518361856E-03   0.1514400411E-03   0.3813722817E-05  -0.1191042719E-05  -0.1236581078E-05
   0.1004000000E+01   0.9992485979E+00   0.9992485978E+00   0.1000000000E-05  -0.2911503548E-06  -0.2911507119E-06   0.3999000000E-02  -0.7511109812E-03  -0.7511110767E-03   0.1722562600E+03   0.1669071798E-03   0.1653516739E-03  -0.2298745259E-05  -0.2079275323E-05   0.1348241974E-06
   0.0000000000E+00   0.9992485980E+00   0.9992485980E+00   0.0000000000E+00  -0.2911474569E-06  -0.2911475887E-06   0.0000000000E+00  -0.7511108088E-03  -0.7511108375E-03   0.1722562658E+03   0.1589237346E-03   0.1574393879E-03  -0.3031025318E-05  -0.4022207245E-05  -0.6860828538E-06
     1     2     3     4     5     6     7     8
 VARIABLES = X,Y,Z,DU1,DU2,DU3,U1,U2,U3,S11,S22,S33,S12,S13,S23
 ZONE, T="  0.2250D+00" F=FEPOINT, I=    8 J=    1 ET=BRICK
   0.0000000000E+00   0.8815847326E-03   0.8815846959E-03   0.0000000000E+00   0.2329363164E-06   0.2329363094E-06   0.0000000000E+00   0.8813517963E-03   0.8813517596E-03   0.1680685398E+03   0.1021770126E-04   0.9386529192E-05  -0.1042173252E-05  -0.8539730335E-06  -0.5975750968E-07
   0.1004500000E+01   0.8815849910E-03   0.8815850482E-03   0.1000000000E-05   0.2329295288E-06   0.2329295186E-06   0.4499000000E-02   0.8813520614E-03   0.8813521187E-03   0.1680685613E+03   0.2369610968E-04   0.2298452118E-04  -0.1316707528E-05  -0.9695987194E-06  -0.6851984948E-07
   0.1004500000E+01   0.9991184150E+00   0.8815849636E-03   0.1000000000E-05  -0.2329295289E-06   0.2329295274E-06   0.4499000000E-02  -0.8813520243E-03   0.8813520341E-03   0.1680685623E+03   0.2378012255E-04   0.2394230789E-04   0.1128712344E-05  -0.6577517814E-06  -0.2684175944E-06
   0.0000000000E+00   0.9991184152E+00   0.8815847650E-03   0.0000000000E+00  -0.2329363164E-06   0.2329363213E-06   0.0000000000E+00  -0.8813518415E-03   0.8813518287E-03   0.1680685508E+03   0.1775101437E-04   0.1782500691E-04   0.1111246341E-05  -0.6769911663E-06  -0.1604564536E-06
   0.0000000000E+00   0.8815847033E-03   0.9991184152E+00   0.0000000000E+00   0.2329363143E-06  -0.2329363094E-06   0.0000000000E+00   0.8813517669E-03  -0.8813518948E-03   0.1680685399E+03   0.1029144425E-04   0.9666709805E-05  -0.1603668971E-05  -0.6415673444E-06   0.2821718596E-06
   0.1004500000E+01   0.8815850293E-03   0.9991184151E+00   0.1000000000E-05   0.2329295172E-06  -0.2329295188E-06   0.4499000000E-02   0.8813520998E-03  -0.8813519914E-03   0.1680685440E+03   0.1065101918E-04   0.1069082602E-04   0.3415851973E-07   0.2346217023E-05   0.2869349120E-06
   0.1004500000E+01   0.9991184151E+00   0.9991184151E+00   0.1000000000E-05  -0.2329295172E-06  -0.2329295273E-06   0.4499000000E-02  -0.8813520073E-03  -0.8813520058E-03   0.1680685578E+03   0.2057864719E-04   0.2185351064E-04   0.1124185691E-05   0.1469664478E-05  -0.6824412733E-07
   0.0000000000E+00   0.9991184152E+00   0.9991184152E+00   0.0000000000E+00  -0.2329363142E-06  -0.2329363212E-06   0.0000000000E+00  -0.8813518513E-03  -0.8813518488E-03   0.1680685520E+03   0.1875781374E-04   0.1937445179E-04   0.5642468803E-06  -0.1599943143E-07   0.5619971128E-07
     1     2     3     4     5     6     7     8
 VARIABLES = X,Y,Z,DU1,DU2,DU3,U1,U2,U3,S11,S22,S33,S12,S13,S23
 ZONE, T="  0.2500D+00" F=FEPOINT, I=    8 J=    1 ET=BRICK
   0.0000000000E+00   0.9997513311E-03   0.9997512919E-03   0.0000000000E+00   0.2377443226E-06   0.2377443244E-06   0.0000000000E+00   0.9995135868E-03   0.9995135475E-03   0.1722858443E+03  -0.7782325553E-05  -0.8369866684E-05   0.6177975775E-06   0.7678135904E-06  -0.3316649754E-07
   0.1005000000E+01   0.9997517143E-03   0.9997517678E-03   0.1000000000E-05   0.2377453310E-06   0.2377453364E-06   0.4999000000E-02   0.9995139690E-03   0.9995140225E-03   0.1722858590E+03   0.9072691161E-05   0.8594150593E-05   0.3946756319E-06   0.6738412041E-06  -0.5284297854E-07
   0.1005000000E+01   0.9990002483E+00   0.9997516863E-03   0.1000000000E-05  -0.2377453310E-06   0.2377453343E-06   0.4999000000E-02  -0.9995139319E-03   0.9995139410E-03   0.1722858597E+03   0.9472760387E-05   0.9598919825E-05  -0.5474175554E-06   0.9239104089E-06  -0.1680484061E-06
   0.0000000000E+00   0.9990002486E+00   0.9997513654E-03   0.0000000000E+00  -0.2377443228E-06   0.2377443181E-06   0.0000000000E+00  -0.9995136320E-03   0.9995136211E-03   0.1722858547E+03   0.2059594066E-06   0.2352933064E-06  -0.5616127966E-06   0.9082741053E-06  -0.8651507654E-07
   0.0000000000E+00   0.9997513012E-03   0.9990002486E+00   0.0000000000E+00   0.2377443200E-06  -0.2377443246E-06   0.0000000000E+00   0.9995135569E-03  -0.9995136828E-03   0.1722858446E+03  -0.7709975680E-05  -0.8186757950E-05   0.1521212298E-06  -0.1983235413E-05   0.1853839491E-06
   0.1005000000E+01   0.9997517483E-03   0.9990002484E+00   0.1000000000E-05   0.2377453397E-06  -0.2377453365E-06   0.4999000000E-02   0.9995140029E-03  -0.9995138953E-03   0.1722858425E+03  -0.4196833895E-05  -0.4158986301E-05   0.1483231145E-05   0.4450234455E-06   0.1832150798E-06
   0.1005000000E+01   0.9990002483E+00   0.9990002483E+00   0.1000000000E-05  -0.2377453397E-06  -0.2377453342E-06   0.4999000000E-02  -0.9995139104E-03  -0.9995139127E-03   0.1722858557E+03   0.6154484508E-05   0.7090664474E-05  -0.5418582534E-06  -0.2640926128E-06  -0.5823979311E-07
   0.0000000000E+00   0.9990002486E+00   0.9990002486E+00   0.0000000000E+00  -0.2377443197E-06  -0.2377443179E-06   0.0000000000E+00  -0.9995136411E-03  -0.9995136411E-03   0.1722858560E+03   0.1239387411E-05   0.1652722823E-05  -0.9969369487E-06  -0.1471534712E-05   0.3019205771E-07
     1     2     3     4     5     6     7     8
 VARIABLES = X,Y,Z,DU1,DU2,DU3,U1,U2,U3,S11,S22,S33,S12,S13,S23
 ZONE, T="  0.2750D+00" F=FEPOINT, I=    8 J=    1 ET=BRICK
   0.0000000000E+00   0.1118721238E-02   0.1118721199E-02   0.0000000000E+00   0.2381728935E-06   0.2381728949E-06   0.0000000000E+00   0.1118483065E-02   0.1118483026E-02   0.1758736252E+03  -0.5982554841E-05  -0.6508183036E-05  -0.1043848017E-05  -0.9166581335E-06  -0.4372660271E-07
   0.1005500000E+01   0.1118721432E-02   0.1118721488E-02   0.1000000000E-05   0.2381728842E-06   0.2381728894E-06   0.5499000000E-02   0.1118483259E-02   0.1118483315E-02   0.1758736465E+03   0.7623887410E-05   0.7165963991E-05  -0.1225262563E-05  -0.9930646018E-06  -0.3751822609E-07
   0.1005500000E+01   0.9988812786E+00   0.1118721406E-02   0.1000000000E-05  -0.2381728844E-06   0.2381728876E-06   0.5499000000E-02  -0.1118483222E-02   0.1118483233E-02   0.1758736472E+03   0.8046124290E-05   0.8137910193E-05   0.1101137771E-05  -0.7840287218E-06  -0.1708816266E-06
   0.0000000000E+00   0.9988812787E+00   0.1118721270E-02   0.0000000000E+00  -0.2381728936E-06   0.2381728893E-06   0.0000000000E+00  -0.1118483110E-02   0.1118483097E-02   0.1758736355E+03   0.2066180737E-05   0.2123376454E-05   0.1089595928E-05  -0.7967421999E-06  -0.9431250511E-07
   0.0000000000E+00   0.1118721206E-02   0.9988812787E+00   0.0000000000E+00   0.2381728907E-06  -0.2381728949E-06   0.0000000000E+00   0.1118483033E-02  -0.1118483162E-02   0.1758736254E+03  -0.5900884657E-05  -0.6321788516E-05  -0.1406401794E-05  -0.7150350822E-07   0.1745891318E-06
   0.1005500000E+01   0.1118721471E-02   0.9988812786E+00   0.1000000000E-05   0.2381728927E-06  -0.2381728896E-06   0.5499000000E-02   0.1118483298E-02  -0.1118483188E-02   0.1758736301E+03  -0.5714162390E-05  -0.5672723875E-05  -0.3241114688E-06   0.1902849400E-05   0.1833030729E-06
   0.1005500000E+01   0.9988812786E+00   0.9988812786E+00   0.1000000000E-05  -0.2381728926E-06  -0.2381728874E-06   0.5499000000E-02  -0.1118483205E-02  -0.1118483205E-02   0.1758736432E+03   0.4743191772E-05   0.5573101802E-05   0.1089451353E-05   0.1320443469E-05  -0.5269326383E-07
   0.0000000000E+00   0.9988812787E+00   0.9988812787E+00   0.0000000000E+00  -0.2381728905E-06  -0.2381728891E-06   0.0000000000E+00  -0.1118483118E-02  -0.1118483117E-02   0.1758736368E+03   0.3131796762E-05   0.3515911298E-05   0.7194388164E-06   0.3387043219E-06   0.4116595989E-07
     1     2     3     4     5     6     7     8
 VARIABLES = X,Y,Z,DU1,DU2,DU3,U1,U2,U3,S11,S22,S33,S12,S13,S23
 ZONE, T="  0.3000D+00" F=FEPOINT, I=    8 J=    1 ET=BRICK
   0.0000000000E+00   0.1237924192E-02   0.1237924155E-02   0.0000000000E+00   0.2386199956E-06   0.2386199969E-06   0.0000000000E+00   0.1237685572E-02   0.1237685535E-02   0.1792346215E+03  -0.6921311806E-05  -0.7391293167E-05  -0.3486580378E-06  -0.2401040378E-06  -0.5088855305E-07
   0.1006000000E+01   0.1237924449E-02   0.1237924508E-02   0.1000000000E-05   0.2386198867E-06   0.2386198916E-06   0.5999000000E-02   0.1237685829E-02   0.1237685888E-02   0.1792346400E+03   0.8101427386E-05   0.7667127660E-05  -0.4965584837E-06  -0.3023953658E-06  -0.2512625870E-07
   0.1006000000E+01   0.9987620756E+00   0.1237924425E-02   0.1000000000E-05  -0.2386198868E-06   0.2386198900E-06   0.5999000000E-02  -0.1237685792E-02   0.1237685805E-02   0.1792346407E+03   0.8550745505E-05   0.8615054880E-05   0.3954717416E-06  -0.1267403117E-06  -0.1695977857E-06
   0.0000000000E+00   0.9987620758E+00   0.1237924222E-02   0.0000000000E+00  -0.2386199958E-06   0.2386199916E-06   0.0000000000E+00  -0.1237685618E-02   0.1237685602E-02   0.1792346317E+03   0.1188905389E-05   0.1266039796E-05   0.3860621185E-06  -0.1371051176E-06  -0.9766743831E-07
   0.0000000000E+00   0.1237924159E-02   0.9987620757E+00   0.0000000000E+00   0.2386199929E-06  -0.2386199971E-06   0.0000000000E+00   0.1237685539E-02  -0.1237685670E-02   0.1792346218E+03  -0.6832864887E-05  -0.7206430795E-05  -0.6293263775E-06  -0.5653995867E-06   0.1630124627E-06
   0.1006000000E+01   0.1237924492E-02   0.9987620756E+00   0.1000000000E-05   0.2386198949E-06  -0.2386198918E-06   0.5999000000E-02   0.1237685872E-02  -0.1237685761E-02   0.1792346238E+03  -0.5296990203E-05  -0.5252794157E-05   0.2530244956E-06   0.1044216297E-05   0.1798817037E-06
   0.1006000000E+01   0.9987620756E+00   0.9987620756E+00   0.1000000000E-05  -0.2386198949E-06  -0.2386198899E-06   0.5999000000E-02  -0.1237685779E-02  -0.1237685776E-02   0.1792346368E+03   0.5256684717E-05   0.5994165276E-05   0.3708210030E-06   0.5639516027E-06  -0.4825637423E-07
   0.0000000000E+00   0.9987620758E+00   0.9987620758E+00   0.0000000000E+00  -0.2386199927E-06  -0.2386199914E-06   0.0000000000E+00  -0.1237685624E-02  -0.1237685622E-02   0.1792346330E+03   0.2279596427E-05   0.2634335662E-05   0.6916357590E-07  -0.2364234913E-06   0.4874966256E-07
     1     2     3     4     5     6     7     8
 VARIABLES = X,Y,Z,DU1,DU2,DU3,U1,U2,U3,S11,S22,S33,S12,S13,S23
 ZONE, T="  0.3250D+00" F=FEPOINT, I=    8 J=    1 ET=BRICK
   0.0000000000E+00   0.1357326905E-02   0.1357326868E-02   0.0000000000E+00   0.2389776057E-06   0.2389776070E-06   0.0000000000E+00   0.1357087927E-02   0.1357087890E-02   0.1823921518E+03  -0.6985217226E-05  -0.7409198667E-05  -0.4683281751E-06  -0.3749452254E-06  -0.5618518029E-07
   0.1006500000E+01   0.1357327136E-02   0.1357327197E-02   0.1000000000E-05   0.2389776326E-06   0.2389776373E-06   0.6499000000E-02   0.1357088158E-02   0.1357088219E-02   0.1823921708E+03   0.7831754241E-05   0.7418185077E-05  -0.5892064984E-06  -0.4258556387E-06  -0.1540277426E-07
   0.1006500000E+01   0.9986426729E+00   0.1357327113E-02   0.1000000000E-05  -0.2389776328E-06   0.2389776357E-06   0.6499000000E-02  -0.1357088121E-02   0.1357088135E-02   0.1823921715E+03   0.8303443003E-05   0.8345895203E-05   0.5066289117E-06  -0.2771748451E-06  -0.1677720512E-06
   0.0000000000E+00   0.9986426730E+00   0.1357326932E-02   0.0000000000E+00  -0.2389776059E-06   0.2389776017E-06   0.0000000000E+00  -0.1357087972E-02   0.1357087955E-02   0.1823921620E+03   0.1177676449E-05   0.1270112148E-05   0.4989384489E-06  -0.2856459310E-06  -0.9983261524E-07
   0.0000000000E+00   0.1357326870E-02   0.9986426730E+00   0.0000000000E+00   0.2389776030E-06  -0.2389776071E-06   0.0000000000E+00   0.1357087893E-02  -0.1357088025E-02   0.1823921521E+03  -0.6890867963E-05  -0.7225483913E-05  -0.6833115521E-06  -0.2833489823E-06   0.1531562025E-06
   0.1006500000E+01   0.1357327182E-02   0.9986426729E+00   0.1000000000E-05   0.2389776404E-06  -0.2389776375E-06   0.6499000000E-02   0.1357088204E-02  -0.1357088092E-02   0.1823921546E+03  -0.5618087048E-05  -0.5571944130E-05   0.3782978348E-07   0.1032182520E-05   0.1762783124E-06
   0.1006500000E+01   0.9986426729E+00   0.9986426729E+00   0.1000000000E-05  -0.2389776403E-06  -0.2389776356E-06   0.6499000000E-02  -0.1357088112E-02  -0.1357088106E-02   0.1823921676E+03   0.5016426173E-05   0.5677702991E-05   0.4719961868E-06   0.6344654440E-06  -0.4458642728E-07
   0.0000000000E+00   0.9986426730E+00   0.9986426730E+00   0.0000000000E+00  -0.2389776027E-06  -0.2389776015E-06   0.0000000000E+00  -0.1357087977E-02  -0.1357087975E-02   0.1823921633E+03   0.2288928813E-05   0.2618802619E-05   0.2254529130E-06  -0.1967734448E-07   0.5429674896E-07
     1     2     3     4     5     6     7     8
 VARIABLES = X,Y,Z,DU1,DU2,DU3,U1,U2,U3,S11,S22,S33,S12,S13,S23
 ZONE, T="  0.3500D+00" F=FEPOINT, I=    8 J=    1 ET=BRICK
   0.0000000000E+00   0.1476890813E-02   0.1476890776E-02   0.0000000000E+00   0.2392672110E-06   0.2392672122E-06   0.0000000000E+00   0.1476651546E-02   0.1476651509E-02   0.1853732014E+03  -0.7174731375E-05  -0.7560226472E-05  -0.4290082468E-06  -0.3480448002E-06  -0.6010438285E-07
   0.1007000000E+01   0.1476891037E-02   0.1476891100E-02   0.1000000000E-05   0.2392671837E-06   0.2392671880E-06   0.6999000000E-02   0.1476651770E-02   0.1476651833E-02   0.1853732201E+03   0.7747912807E-05   0.7353006090E-05  -0.5280355616E-06  -0.3897522234E-06  -0.7704090084E-08
   0.1007000000E+01   0.9985231090E+00   0.1476891015E-02   0.1000000000E-05  -0.2392671839E-06   0.2392671866E-06   0.6999000000E-02  -0.1476651733E-02   0.1476651748E-02   0.1853732208E+03   0.8238606733E-05   0.8263632496E-05   0.4604854005E-06  -0.2631051260E-06  -0.1654222730E-06
   0.0000000000E+00   0.9985231091E+00   0.1476890839E-02   0.0000000000E+00  -0.2392672110E-06   0.2392672071E-06   0.0000000000E+00  -0.1476651591E-02   0.1476651571E-02   0.1853732115E+03   0.1034284742E-05   0.1138075856E-05   0.4541851187E-06  -0.2700448878E-06  -0.1009722353E-06
   0.0000000000E+00   0.1476890777E-02   0.9985231091E+00   0.0000000000E+00   0.2392672083E-06  -0.2392672122E-06   0.0000000000E+00   0.1476651510E-02  -0.1476651645E-02   0.1853732016E+03  -0.7075303421E-05  -0.7377434333E-05  -0.5913994890E-06  -0.1911504946E-06   0.1446294139E-06
   0.1007000000E+01   0.1476891087E-02   0.9985231090E+00   0.1000000000E-05   0.2392671910E-06  -0.2392671882E-06   0.6999000000E-02   0.1476651820E-02  -0.1476651706E-02   0.1853732041E+03  -0.5746263303E-05  -0.5698782396E-05  -0.6177791810E-09   0.8865742110E-06   0.1724731789E-06
   0.1007000000E+01   0.9985231090E+00   0.9985231090E+00   0.1000000000E-05  -0.2392671909E-06  -0.2392671865E-06   0.6999000000E-02  -0.1476651727E-02  -0.1476651720E-02   0.1853732170E+03   0.4957099553E-05   0.5554860266E-05   0.4181833143E-06   0.5557088164E-06  -0.4135343969E-07
   0.0000000000E+00   0.9985231091E+00   0.9985231091E+00   0.0000000000E+00  -0.2392672082E-06  -0.2392672070E-06   0.0000000000E+00  -0.1476651594E-02  -0.1476651591E-02   0.1853732128E+03   0.2162343063E-05   0.2470804688E-05   0.2162072931E-06   0.1981454918E-07   0.5841852180E-07
     1     2     3     4     5     6     7     8
 VARIABLES = X,Y,Z,DU1,DU2,DU3,U1,U2,U3,S11,S22,S33,S12,S13,S23
 ZONE, T="  0.3750D+00" F=FEPOINT, I=    8 J=    1 ET=BRICK
   0.0000000000E+00   0.1596585113E-02   0.1596585077E-02   0.0000000000E+00   0.2395011388E-06   0.2395011399E-06   0.0000000000E+00   0.1596345612E-02   0.1596345576E-02   0.1881993685E+03  -0.7337976820E-05  -0.7691049229E-05  -0.3900794822E-06  -0.3193116329E-06  -0.6281718420E-07
   0.1007500000E+01   0.1596585331E-02   0.1596585396E-02   0.1000000000E-05   0.2395011240E-06   0.2395011282E-06   0.7499000000E-02   0.1596345829E-02   0.1596345895E-02   0.1881993871E+03   0.7685740118E-05   0.7307681697E-05  -0.4713882889E-06  -0.3535565514E-06  -0.1481908091E-08
   0.1007500000E+01   0.9984034147E+00   0.1596585311E-02   0.1000000000E-05  -0.2395011242E-06   0.2395011270E-06   0.7499000000E-02  -0.1596345793E-02   0.1596345809E-02   0.1881993878E+03   0.8192565243E-05   0.8203795919E-05   0.4160144563E-06  -0.2449626606E-06  -0.1626468198E-06
   0.0000000000E+00   0.9984034148E+00   0.1596585137E-02   0.0000000000E+00  -0.2395011389E-06   0.2395011353E-06   0.0000000000E+00  -0.1596345657E-02   0.1596345636E-02   0.1881993786E+03   0.9117396491E-06   0.1023815678E-05   0.4108414351E-06  -0.2506607110E-06  -0.1013507186E-06
   0.0000000000E+00   0.1596585076E-02   0.9984034148E+00   0.0000000000E+00   0.2395011364E-06  -0.2395011400E-06   0.0000000000E+00   0.1596345575E-02  -0.1596345711E-02   0.1881993688E+03  -0.7234131134E-05  -0.7509015008E-05  -0.5102515987E-06  -0.1233180061E-06   0.1370188759E-06
   0.1007500000E+01   0.1596585385E-02   0.9984034147E+00   0.1000000000E-05   0.2395011312E-06  -0.2395011285E-06   0.7499000000E-02   0.1596345883E-02  -0.1596345768E-02   0.1881993712E+03  -0.5847058631E-05  -0.5798820151E-05  -0.2517570023E-07   0.7615743114E-06   0.1684733611E-06
   0.1007500000E+01   0.9984034147E+00   0.9984034147E+00   0.1000000000E-05  -0.2395011311E-06  -0.2395011268E-06   0.7499000000E-02  -0.1596345791E-02  -0.1596345781E-02   0.1881993839E+03   0.4915303410E-05   0.5459875413E-05   0.3679383172E-06   0.4851222012E-06  -0.3859855024E-07
   0.0000000000E+00   0.9984034148E+00   0.9984034148E+00   0.0000000000E+00  -0.2395011363E-06  -0.2395011352E-06   0.0000000000E+00  -0.1596345659E-02  -0.1596345655E-02   0.1881993798E+03   0.2053596314E-05   0.2343491691E-05   0.2021008760E-06   0.4511305413E-07   0.6144096757E-07
     1     2     3     4     5     6     7     8
 VARIABLES = X,Y,Z,DU1,DU2,DU3,U1,U2,U3,S11,S22,S33,S12,S13,S23
 ZONE, T="  0.4000D+00" F=FEPOINT, I=    8 J=    1 ET=BRICK
   0.0000000000E+00   0.1716384513E-02   0.1716384478E-02   0.0000000000E+00   0.2396891047E-06   0.2396891058E-06   0.0000000000E+00   0.1716144824E-02   0.1716144789E-02   0.1908883936E+03  -0.7458148471E-05  -0.7783935971E-05  -0.3744161388E-06  -0.3120872061E-06  -0.6458336997E-07
   0.1008000000E+01   0.1716384722E-02   0.1716384790E-02   0.1000000000E-05   0.2396890914E-06   0.2396890954E-06   0.7999000000E-02   0.1716145033E-02   0.1716145101E-02   0.1908884121E+03   0.7617747114E-05   0.7254891674E-05  -0.4413195037E-06  -0.3402649761E-06   0.3340019732E-08
   0.1008000000E+01   0.9982836153E+00   0.1716384704E-02   0.1000000000E-05  -0.2396890916E-06   0.2396890942E-06   0.7999000000E-02  -0.1716144996E-02   0.1716145015E-02   0.1908884128E+03   0.8138361232E-05   0.8138692430E-05   0.3957956449E-06  -0.2464130688E-06  -0.1594793919E-06
   0.0000000000E+00   0.9982836154E+00   0.1716384535E-02   0.0000000000E+00  -0.2396891049E-06   0.2396891011E-06   0.0000000000E+00  -0.1716144869E-02   0.1716144846E-02   0.1908884036E+03   0.8276194954E-06   0.9457382630E-06   0.3915391058E-06  -0.2511015844E-06  -0.1010335055E-06
   0.0000000000E+00   0.1716384475E-02   0.9982836154E+00   0.0000000000E+00   0.2396891022E-06  -0.2396891059E-06   0.0000000000E+00   0.1716144786E-02  -0.1716144924E-02   0.1908883939E+03  -0.7350433471E-05  -0.7602477181E-05  -0.4606256120E-06  -0.5208261969E-07   0.1302386375E-06
   0.1008000000E+01   0.1716384780E-02   0.9982836153E+00   0.1000000000E-05   0.2396890983E-06  -0.2396890957E-06   0.7999000000E-02   0.1716145091E-02  -0.1716144974E-02   0.1908883962E+03  -0.5948979339E-05  -0.5900429741E-05  -0.6149021267E-07   0.6760339174E-06   0.1643694118E-06
   0.1008000000E+01   0.9982836153E+00   0.9982836153E+00   0.1000000000E-05  -0.2396890981E-06  -0.2396890940E-06   0.7999000000E-02  -0.1716144998E-02  -0.1716144986E-02   0.1908884090E+03   0.4864345050E-05   0.5364179479E-05   0.3434864691E-06   0.4439842826E-06  -0.3635046141E-07
   0.0000000000E+00   0.9982836154E+00   0.9982836154E+00   0.0000000000E+00  -0.2396891019E-06  -0.2396891009E-06   0.0000000000E+00  -0.1716144870E-02  -0.1716144866E-02   0.1908884049E+03   0.1980855777E-05   0.2254721994E-05   0.2070302638E-06   0.8193124972E-07   0.6339369445E-07
     1     2     3     4     5     6     7     8
 VARIABLES = X,Y,Z,DU1,DU2,DU3,U1,U2,U3,S11,S22,S33,S12,S13,S23
 ZONE, T="  0.4250D+00" F=FEPOINT, I=    8 J=    1 ET=BRICK
   0.0000000000E+00   0.1836267991E-02   0.1836267956E-02   0.0000000000E+00   0.2398386427E-06   0.2398386438E-06   0.0000000000E+00   0.1836028152E-02   0.1836028118E-02   0.1934550299E+03  -0.7568876669E-05  -0.7871279603E-05  -0.3523034698E-06  -0.2969698131E-06  -0.6562847605E-07
   0.1008500000E+01   0.1836268194E-02   0.1836268263E-02   0.1000000000E-05   0.2398386280E-06   0.2398386318E-06   0.8499000000E-02   0.1836028355E-02   0.1836028424E-02   0.1934550482E+03   0.7569517758E-05   0.7220664518E-05  -0.4074656695E-06  -0.3202025486E-06   0.7191532717E-08
   0.1008500000E+01   0.9981637318E+00   0.1836268176E-02   0.1000000000E-05  -0.2398386282E-06   0.2398386307E-06   0.8499000000E-02  -0.1836028318E-02   0.1836028338E-02   0.1934550489E+03   0.8102151658E-05   0.8093772659E-05   0.3700105217E-06  -0.2385365377E-06  -0.1561973940E-06
   0.0000000000E+00   0.9981637320E+00   0.1836268012E-02   0.0000000000E+00  -0.2398386429E-06   0.2398386392E-06   0.0000000000E+00  -0.1836028198E-02   0.1836028173E-02   0.1934550398E+03   0.7492463416E-06   0.8715069271E-06   0.3665009548E-06  -0.2424022518E-06  -0.1002483705E-06
   0.0000000000E+00   0.1836267952E-02   0.9981637319E+00   0.0000000000E+00   0.2398386404E-06  -0.2398386439E-06   0.0000000000E+00   0.1836028113E-02  -0.1836028253E-02   0.1934550301E+03  -0.7457710125E-05  -0.7690344034E-05  -0.4112270967E-06  -0.3210755927E-08   0.1242101057E-06
   0.1008500000E+01   0.1836268254E-02   0.9981637319E+00   0.1000000000E-05   0.2398386345E-06  -0.2398386320E-06   0.8499000000E-02   0.1836028416E-02  -0.1836028298E-02   0.1934550325E+03  -0.6027260912E-05  -0.5978608947E-05  -0.8213761536E-07   0.5971255069E-06   0.1602919100E-06
   0.1008500000E+01   0.9981637318E+00   0.9981637319E+00   0.1000000000E-05  -0.2398386343E-06  -0.2398386305E-06   0.8499000000E-02  -0.1836028323E-02  -0.1836028309E-02   0.1934550451E+03   0.4830597132E-05   0.5292330491E-05   0.3145656200E-06   0.4013555857E-06  -0.3418313454E-07
   0.0000000000E+00   0.9981637320E+00   0.9981637320E+00   0.0000000000E+00  -0.2398386401E-06  -0.2398386390E-06   0.0000000000E+00  -0.1836028197E-02  -0.1836028192E-02   0.1934550411E+03   0.1911975397E-05   0.2171589929E-05   0.2020566774E-06   0.1028408067E-06   0.6459310707E-07
     1     2     3     4     5     6     7     8
 VARIABLES = X,Y,Z,DU1,DU2,DU3,U1,U2,U3,S11,S22,S33,S12,S13,S23
 ZONE, T="  0.4500D+00" F=FEPOINT, I=    8 J=    1 ET=BRICK
   0.0000000000E+00   0.1956217884E-02   0.1956217850E-02   0.0000000000E+00   0.2399557131E-06   0.2399557142E-06   0.0000000000E+00   0.1955977928E-02   0.1955977894E-02   0.1959116854E+03  -0.7662848112E-05  -0.7945175599E-05  -0.3342451590E-06  -0.2847394348E-06  -0.6626093184E-07
   0.1009000000E+01   0.1956218079E-02   0.1956218151E-02   0.1000000000E-05   0.2399556999E-06   0.2399557037E-06   0.8999000000E-02   0.1955978124E-02   0.1955978195E-02   0.1959117037E+03   0.7527998891E-05   0.7191997066E-05  -0.3798149475E-06  -0.3039321262E-06   0.1002258799E-07
   0.1009000000E+01   0.9980437820E+00   0.1956218064E-02   0.1000000000E-05  -0.2399557000E-06   0.2399557024E-06   0.8999000000E-02  -0.1955978087E-02   0.1955978108E-02   0.1959117044E+03   0.8071142675E-05   0.8055768061E-05   0.3489346603E-06  -0.2323534310E-06  -0.1526993462E-06
   0.0000000000E+00   0.9980437821E+00   0.1956217903E-02   0.0000000000E+00  -0.2399557131E-06   0.2399557098E-06   0.0000000000E+00  -0.1955977974E-02   0.1955977947E-02   0.1959116953E+03   0.6845126910E-06   0.8092646169E-06   0.3460353516E-06  -0.2355469345E-06  -0.9897146188E-07
   0.0000000000E+00   0.1956217844E-02   0.9980437820E+00   0.0000000000E+00   0.2399557109E-06  -0.2399557141E-06   0.0000000000E+00   0.1955977888E-02  -0.1955978029E-02   0.1959116857E+03  -0.7548710869E-05  -0.7764571824E-05  -0.3712298008E-06   0.3682014847E-07   0.1188014022E-06
   0.1009000000E+01   0.1956218143E-02   0.9980437820E+00   0.1000000000E-05   0.2399557062E-06  -0.2399557039E-06   0.8999000000E-02   0.1955978188E-02  -0.1955978069E-02   0.1959116880E+03  -0.6095651109E-05  -0.6047028839E-05  -0.9936707643E-07   0.5327612971E-06   0.1561951045E-06
   0.1009000000E+01   0.9980437819E+00   0.9980437820E+00   0.1000000000E-05  -0.2399557061E-06  -0.2399557022E-06   0.8999000000E-02  -0.1955978095E-02  -0.1955978079E-02   0.1959117006E+03   0.4801357172E-05   0.5230547166E-05   0.2913156330E-06   0.3667975781E-06  -0.3238879265E-07
   0.0000000000E+00   0.9980437821E+00   0.9980437821E+00   0.0000000000E+00  -0.2399557109E-06  -0.2399557098E-06   0.0000000000E+00  -0.1955977971E-02  -0.1955977966E-02   0.1959116966E+03   0.1855071540E-05   0.2102065198E-05   0.1983713167E-06   0.1201928437E-06   0.6529435724E-07
     1     2     3     4     5     6     7     8
 VARIABLES = X,Y,Z,DU1,DU2,DU3,U1,U2,U3,S11,S22,S33,S12,S13,S23
 ZONE, T="  0.4750D+00" F=FEPOINT, I=    8 J=    1 ET=BRICK
   0.0000000000E+00   0.2076219198E-02   0.2076219165E-02   0.0000000000E+00   0.2400450984E-06   0.2400450993E-06   0.0000000000E+00   0.2075979153E-02   0.2075979119E-02   0.1982689015E+03  -0.7744062642E-05  -0.8009101080E-05  -0.3186196652E-06  -0.2739992234E-06  -0.6632451929E-07
   0.1009500000E+01   0.2076219387E-02   0.2076219461E-02   0.1000000000E-05   0.2400450855E-06   0.2400450890E-06   0.9499000000E-02   0.2075979342E-02   0.2075979415E-02   0.1982689196E+03   0.7492780490E-05   0.7168571742E-05  -0.3563348189E-06  -0.2898837638E-06   0.1224388021E-07
   0.1009500000E+01   0.9979237806E+00   0.2076219373E-02   0.1000000000E-05  -0.2400450857E-06   0.2400450881E-06   0.9499000000E-02  -0.2075979306E-02   0.2075979327E-02   0.1982689203E+03   0.8045055242E-05   0.8024239208E-05   0.3308268942E-06  -0.2266213066E-06  -0.1490405069E-06
   0.0000000000E+00   0.9979237808E+00   0.2076219215E-02   0.0000000000E+00  -0.2400450986E-06   0.2400450953E-06   0.0000000000E+00  -0.2075979199E-02   0.2075979170E-02   0.1982689113E+03   0.6296324395E-06   0.7560106778E-06   0.3284273003E-06  -0.2292643625E-06  -0.9743475152E-07
   0.0000000000E+00   0.2076219157E-02   0.9979237807E+00   0.0000000000E+00   0.2400450963E-06  -0.2400450995E-06   0.0000000000E+00   0.2075979112E-02  -0.2075979255E-02   0.1982689017E+03  -0.7627161446E-05  -0.7828872157E-05  -0.3379154155E-06   0.6886206558E-07   0.1139742429E-06
   0.1009500000E+01   0.2076219454E-02   0.9979237807E+00   0.1000000000E-05   0.2400450915E-06  -0.2400450892E-06   0.9499000000E-02   0.2075979409E-02  -0.2075979289E-02   0.1982689040E+03  -0.6154990284E-05  -0.6106663319E-05  -0.1129121012E-06   0.4793206123E-06   0.1522532670E-06
   0.1009500000E+01   0.9979237806E+00   0.9979237807E+00   0.1000000000E-05  -0.2400450915E-06  -0.2400450880E-06   0.9499000000E-02  -0.2075979316E-02  -0.2075979299E-02   0.1982689166E+03   0.4776534833E-05   0.5177826220E-05   0.2717259407E-06   0.3378424220E-06  -0.3082031157E-07
   0.0000000000E+00   0.9979237808E+00   0.9979237808E+00   0.0000000000E+00  -0.2400450959E-06  -0.2400450950E-06   0.0000000000E+00  -0.2075979195E-02  -0.2075979190E-02   0.1982689126E+03   0.1806850335E-05   0.2042643893E-05   0.1948018960E-06   0.1337435850E-06   0.6533211562E-07
     1     2     3     4     5     6     7     8
 VARIABLES = X,Y,Z,DU1,DU2,DU3,U1,U2,U3,S11,S22,S33,S12,S13,S23
 ZONE, T="  0.5000D+00" F=FEPOINT, I=    8 J=    1 ET=BRICK
   0.0000000000E+00   0.2196259096E-02   0.2196259062E-02   0.0000000000E+00   0.2401106759E-06   0.2401106769E-06   0.0000000000E+00   0.2196018985E-02   0.2196018952E-02   0.2005357140E+03  -0.7815656453E-05  -0.8065758446E-05  -0.3040438953E-06  -0.2635331022E-06  -0.6602431361E-07
   0.1010000000E+01   0.2196259278E-02   0.2196259353E-02   0.1000000000E-05   0.2401106634E-06   0.2401106669E-06   0.9999000000E-02   0.2196019168E-02   0.2196019243E-02   0.2005357320E+03   0.7463538086E-05   0.7150184389E-05  -0.3353135419E-06  -0.2767029801E-06   0.1410982537E-07
   0.1010000000E+01   0.9978037408E+00   0.2196259265E-02   0.1000000000E-05  -0.2401106636E-06   0.2401106659E-06   0.9999000000E-02  -0.2196019131E-02   0.2196019154E-02   0.2005357327E+03   0.8023773741E-05   0.7998805677E-05   0.3142432648E-06  -0.2204646695E-06  -0.1455233012E-06
   0.0000000000E+00   0.9978037409E+00   0.2196259111E-02   0.0000000000E+00  -0.2401106761E-06   0.2401106729E-06   0.0000000000E+00  -0.2196019031E-02   0.2196019001E-02   0.2005357238E+03   0.5820651955E-06   0.7090175245E-06   0.3122537430E-06  -0.2226560195E-06  -0.9583755239E-07
   0.0000000000E+00   0.2196259053E-02   0.9978037408E+00   0.0000000000E+00   0.2401106739E-06  -0.2401106770E-06   0.0000000000E+00   0.2196018943E-02  -0.2196019087E-02   0.2005357142E+03  -0.7696334963E-05  -0.7885732455E-05  -0.3092280880E-06   0.9353205904E-07   0.1092898543E-06
   0.1010000000E+01   0.2196259348E-02   0.9978037408E+00   0.1000000000E-05   0.2401106694E-06  -0.2401106672E-06   0.9999000000E-02   0.2196019238E-02  -0.2196019116E-02   0.2005357165E+03  -0.6205960249E-05  -0.6158211070E-05  -0.1226776057E-06   0.4338435893E-06   0.1481374607E-06
   0.1010000000E+01   0.9978037407E+00   0.9978037408E+00   0.1000000000E-05  -0.2401106692E-06  -0.2401106657E-06   0.9999000000E-02  -0.2196019145E-02  -0.2196019125E-02   0.2005357290E+03   0.4756156962E-05   0.5133385047E-05   0.2542719884E-06   0.3125998425E-06  -0.2939295559E-07
   0.0000000000E+00   0.9978037409E+00   0.9978037409E+00   0.0000000000E+00  -0.2401106737E-06  -0.2401106727E-06   0.0000000000E+00  -0.2196019026E-02  -0.2196019020E-02   0.2005357251E+03   0.1764765585E-05   0.1990656853E-05   0.1904941465E-06   0.1433813062E-06   0.6525633740E-07
     1     2     3     4     5     6     7     8
 VARIABLES = X,Y,Z,DU1,DU2,DU3,U1,U2,U3,S11,S22,S33,S12,S13,S23
 ZONE, T="  0.5250D+00" F=FEPOINT, I=    8 J=    1 ET=BRICK
   0.0000000000E+00   0.2218863106E-02   0.2218863073E-02   0.0000000000E+00   0.3583120180E-07   0.3583120186E-07   0.0000000000E+00   0.2218827275E-02   0.2218827241E-02   0.2019636072E+03  -0.9103080304E-05  -0.9351138166E-05  -0.3002807593E-06  -0.2603356572E-06  -0.6616640883E-07
   0.1010100000E+01   0.2218863288E-02   0.2218863363E-02   0.2000000000E-06   0.3583120118E-07   0.3583120147E-07   0.1009980000E-01   0.2218827456E-02   0.2218827532E-02   0.2019636253E+03   0.6184528650E-05   0.5872329591E-05  -0.3305626191E-06  -0.2730895121E-06   0.1449742841E-07
   0.1010100000E+01   0.9977811367E+00   0.2218863274E-02   0.2000000000E-06  -0.3583120119E-07   0.3583120140E-07   0.1009980000E-01  -0.2218827420E-02   0.2218827443E-02   0.2019636260E+03   0.6746751040E-05   0.6720942449E-05   0.3101629862E-06  -0.2178332576E-06  -0.1452811217E-06
   0.0000000000E+00   0.9977811368E+00   0.2218863121E-02   0.0000000000E+00  -0.3583120183E-07   0.3583120152E-07   0.0000000000E+00  -0.2218827320E-02   0.2218827290E-02   0.2019636171E+03  -0.7027998203E-06  -0.5753677242E-06   0.3082363216E-06  -0.2199553363E-06  -0.9574203541E-07
   0.0000000000E+00   0.2218863063E-02   0.9977811368E+00   0.0000000000E+00   0.3583120158E-07  -0.3583120188E-07   0.0000000000E+00   0.2218827232E-02  -0.2218827377E-02   0.2019636075E+03  -0.8983680496E-05  -0.9171575859E-05  -0.3030817864E-06   0.9570993077E-07   0.1087579663E-06
   0.1010100000E+01   0.2218863358E-02   0.9977811368E+00   0.2000000000E-06   0.3583120168E-07  -0.3583120148E-07   0.1009980000E-01   0.2218827527E-02  -0.2218827406E-02   0.2019636097E+03  -0.7486446110E-05  -0.7438577188E-05  -0.1224242402E-06   0.4252713439E-06   0.1478215043E-06
   0.1010100000E+01   0.9977811367E+00   0.9977811368E+00   0.2000000000E-06  -0.3583120168E-07  -0.3583120140E-07   0.1009980000E-01  -0.2218827434E-02  -0.2218827414E-02   0.2019636223E+03   0.3478689941E-05   0.3852740606E-05   0.2498566558E-06   0.3070527804E-06  -0.2929697362E-07
   0.0000000000E+00   0.9977811369E+00   0.9977811369E+00   0.0000000000E+00  -0.3583120154E-07  -0.3583120149E-07   0.0000000000E+00  -0.2218827315E-02  -0.2218827309E-02   0.2019636183E+03   0.4805703464E-06   0.7051814398E-06   0.1880934709E-06   0.1431796984E-06   0.6542594571E-07
     1     2     3     4     5     6     7     8
 VARIABLES = X,Y,Z,DU1,DU2,DU3,U1,U2,U3,S11,S22,S33,S12,S13,S23
 ZONE, T="  0.5500D+00" F=FEPOINT, I=    8 J=    1 ET=BRICK
   0.0000000000E+00   0.2237178352E-02   0.2237178319E-02   0.0000000000E+00   0.3813806169E-07   0.3813806175E-07   0.0000000000E+00   0.2237140214E-02   0.2237140181E-02   0.2064113179E+03  -0.1857403170E-06  -0.4330405623E-06  -0.2980331461E-06  -0.2583058824E-06  -0.6630214828E-07
   0.1010200000E+01   0.2237178534E-02   0.2237178609E-02   0.2000000000E-06   0.3813806082E-07   0.3813806116E-07   0.1019980000E-01   0.2237140396E-02   0.2237140471E-02   0.2064113360E+03   0.1510657193E-04   0.1479465464E-04  -0.3278936453E-06  -0.2708822707E-06   0.1469535732E-07
   0.1010200000E+01   0.9977628215E+00   0.2237178521E-02   0.2000000000E-06  -0.3813806084E-07   0.3813806108E-07   0.1019980000E-01  -0.2237140359E-02   0.2237140383E-02   0.2064113367E+03   0.1566981854E-04   0.1564357925E-04   0.3077857501E-06  -0.2160201342E-06  -0.1452814425E-06
   0.0000000000E+00   0.9977628216E+00   0.2237178368E-02   0.0000000000E+00  -0.3813806174E-07   0.3813806142E-07   0.0000000000E+00  -0.2237140260E-02   0.2237140230E-02   0.2064113278E+03   0.8215202059E-05   0.8342989369E-05   0.3058858712E-06  -0.2181126929E-06  -0.9575765725E-07
   0.0000000000E+00   0.2237178310E-02   0.9977628215E+00   0.0000000000E+00   0.3813806147E-07  -0.3813806179E-07   0.0000000000E+00   0.2237140172E-02  -0.2237140317E-02   0.2064113182E+03  -0.6639587471E-07  -0.2537976907E-06  -0.2997452687E-06   0.9597853149E-07   0.1085781450E-06
   0.1010200000E+01   0.2237178605E-02   0.9977628215E+00   0.2000000000E-06   0.3813806142E-07  -0.3813806119E-07   0.1019980000E-01   0.2237140467E-02  -0.2237140345E-02   0.2064113204E+03   0.1435552107E-05   0.1483540936E-05  -0.1216013419E-06   0.4209544371E-06   0.1477867547E-06
   0.1010200000E+01   0.9977628215E+00   0.9977628215E+00   0.2000000000E-06  -0.3813806141E-07  -0.3813806106E-07   0.1019980000E-01  -0.2237140374E-02  -0.2237140354E-02   0.2064113330E+03   0.1240141596E-04   0.1277431641E-04   0.2472528072E-06   0.3039904702E-06  -0.2928738433E-07
   0.0000000000E+00   0.9977628216E+00   0.9977628216E+00   0.0000000000E+00  -0.3813806141E-07  -0.3813806136E-07   0.0000000000E+00  -0.2237140255E-02  -0.2237140249E-02   0.2064113290E+03   0.9398804553E-05   0.9622985482E-05   0.1863489922E-06   0.1423975430E-06   0.6554087068E-07
     1     2     3     4     5     6     7     8
 VARIABLES = X,Y,Z,DU1,DU2,DU3,U1,U2,U3,S11,S22,S33,S12,S13,S23
 ZONE, T="  0.5750D+00" F=FEPOINT, I=    8 J=    1 ET=BRICK
   0.0000000000E+00   0.2257227659E-02   0.2257227626E-02   0.0000000000E+00   0.4190579622E-07   0.4190579635E-07   0.0000000000E+00   0.2257185753E-02   0.2257185720E-02   0.2096385437E+03  -0.1727714425E-05  -0.1973689733E-05  -0.2955467807E-06  -0.2561816209E-06  -0.6633340194E-07
   0.1010300000E+01   0.2257227840E-02   0.2257227916E-02   0.2000000000E-06   0.4190579483E-07   0.4190579529E-07   0.1029980000E-01   0.2257185934E-02   0.2257186010E-02   0.2096385617E+03   0.1357055224E-04   0.1325946989E-04  -0.3248010287E-06  -0.2685026794E-06   0.1491285923E-07
   0.1010300000E+01   0.9977427722E+00   0.2257227827E-02   0.2000000000E-06  -0.4190579485E-07   0.4190579513E-07   0.1029980000E-01  -0.2257185898E-02   0.2257185921E-02   0.2096385624E+03   0.1413485760E-04   0.1410813537E-04   0.3051087135E-06  -0.2142720200E-06  -0.1450191952E-06
   0.0000000000E+00   0.9977427723E+00   0.2257227674E-02   0.0000000000E+00  -0.4190579623E-07   0.4190579583E-07   0.0000000000E+00  -0.2257185799E-02   0.2257185768E-02   0.2096385535E+03   0.6675128815E-05   0.6803092733E-05   0.3032473934E-06  -0.2163220816E-06  -0.9563160982E-07
   0.0000000000E+00   0.2257227616E-02   0.9977427722E+00   0.0000000000E+00   0.4190579597E-07  -0.4190579636E-07   0.0000000000E+00   0.2257185711E-02  -0.2257185856E-02   0.2096385439E+03  -0.1608272376E-05  -0.1794635458E-05  -0.2958529352E-06   0.9715724518E-07   0.1081766233E-06
   0.1010300000E+01   0.2257227911E-02   0.9977427722E+00   0.2000000000E-06   0.4190579559E-07  -0.4190579532E-07   0.1029980000E-01   0.2257186005E-02  -0.2257185884E-02   0.2096385462E+03  -0.1018933447E-06  -0.5386786310E-07  -0.1213257001E-06   0.4155353820E-06   0.1474867166E-06
   0.1010300000E+01   0.9977427722E+00   0.9977427722E+00   0.2000000000E-06  -0.4190579558E-07  -0.4190579512E-07   0.1029980000E-01  -0.2257185912E-02  -0.2257185892E-02   0.2096385587E+03   0.1086629807E-04   0.1123711702E-04   0.2444188381E-06   0.3004489850E-06  -0.2918821510E-07
   0.0000000000E+00   0.9977427723E+00   0.9977427723E+00   0.0000000000E+00  -0.4190579594E-07  -0.4190579581E-07   0.0000000000E+00  -0.2257185794E-02  -0.2257185788E-02   0.2096385548E+03   0.7859158008E-05   0.8082489317E-05   0.1847514732E-06   0.1421367666E-06   0.6560071193E-07
     1     2     3     4     5     6     7     8
 VARIABLES = X,Y,Z,DU1,DU2,DU3,U1,U2,U3,S11,S22,S33,S12,S13,S23
 ZONE, T="  0.6000D+00" F=FEPOINT, I=    8 J=    1 ET=BRICK
   0.0000000000E+00   0.2278814340E-02   0.2278814308E-02   0.0000000000E+00   0.4417339968E-07   0.4417339981E-07   0.0000000000E+00   0.2278770167E-02   0.2278770134E-02   0.2117813480E+03  -0.4839495788E-05  -0.5083565741E-05  -0.2932043099E-06  -0.2543291121E-06  -0.6628271886E-07
   0.1010400000E+01   0.2278814521E-02   0.2278814597E-02   0.2000000000E-06   0.4417339788E-07   0.4417339838E-07   0.1039980000E-01   0.2278770347E-02   0.2278770423E-02   0.2117813660E+03   0.1046517358E-04   0.1015555261E-04  -0.3217022798E-06  -0.2663316671E-06   0.1512545784E-07
   0.1010400000E+01   0.9977211855E+00   0.2278814508E-02   0.2000000000E-06  -0.4417339792E-07   0.4417339829E-07   0.1039980000E-01  -0.2278770311E-02   0.2278770334E-02   0.2117813667E+03   0.1103059347E-04   0.1100339887E-04   0.3025458579E-06  -0.2129502749E-06  -0.1445210827E-06
   0.0000000000E+00   0.9977211856E+00   0.2278814355E-02   0.0000000000E+00  -0.4417339967E-07   0.4417339919E-07   0.0000000000E+00  -0.2278770213E-02   0.2278770182E-02   0.2117813578E+03   0.3566463791E-05   0.3694438520E-05   0.3007326651E-06  -0.2149472981E-06  -0.9539137369E-07
   0.0000000000E+00   0.2278814298E-02   0.9977211856E+00   0.0000000000E+00   0.4417339931E-07  -0.4417339979E-07   0.0000000000E+00   0.2278770124E-02  -0.2278770270E-02   0.2117813482E+03  -0.4719745040E-05  -0.4904599232E-05  -0.2918954228E-06   0.9944273352E-07   0.1075966822E-06
   0.1010400000E+01   0.2278814592E-02   0.9977211855E+00   0.2000000000E-06   0.4417339878E-07  -0.4417339842E-07   0.1039980000E-01   0.2278770419E-02  -0.2278770297E-02   0.2117813504E+03  -0.3209954440E-05  -0.3162008113E-05  -0.1218801533E-06   0.4095899726E-06   0.1469506389E-06
   0.1010400000E+01   0.9977211855E+00   0.9977211855E+00   0.2000000000E-06  -0.4417339875E-07  -0.4417339825E-07   0.1039980000E-01  -0.2278770326E-02  -0.2278770305E-02   0.2117813630E+03   0.7762082539E-05   0.8129890386E-05   0.2417642296E-06   0.2968725395E-06  -0.2901671740E-07
   0.0000000000E+00   0.9977211856E+00   0.9977211856E+00   0.0000000000E+00  -0.4417339931E-07  -0.4417339919E-07   0.0000000000E+00  -0.2278770207E-02  -0.2278770201E-02   0.2117813590E+03   0.4751163477E-05   0.4973176336E-05   0.1836393907E-06   0.1426530936E-06   0.6554206041E-07
     1     2     3     4     5     6     7     8
 VARIABLES = X,Y,Z,DU1,DU2,DU3,U1,U2,U3,S11,S22,S33,S12,S13,S23
 ZONE, T="  0.6250D+00" F=FEPOINT, I=    8 J=    1 ET=BRICK
   0.0000000000E+00   0.2301217060E-02   0.2301217027E-02   0.0000000000E+00   0.4531662050E-07   0.4531662069E-07   0.0000000000E+00   0.2301171743E-02   0.2301171711E-02   0.2133471184E+03  -0.6280933480E-05  -0.6522864797E-05  -0.2910160260E-06  -0.2526840384E-06  -0.6618322747E-07
   0.1010500000E+01   0.2301217239E-02   0.2301217315E-02   0.2000000000E-06   0.4531661864E-07   0.4531661914E-07   0.1049980000E-01   0.2301171923E-02   0.2301171999E-02   0.2133471364E+03   0.9030164911E-05   0.8722250429E-05  -0.3186967355E-06  -0.2643424208E-06   0.1533676985E-07
   0.1010500000E+01   0.9976987828E+00   0.2301217227E-02   0.2000000000E-06  -0.4531661866E-07   0.4531661902E-07   0.1049980000E-01  -0.2301171886E-02   0.2301171910E-02   0.2133471371E+03   0.9596745580E-05   0.9569068403E-05   0.3001136760E-06  -0.2118941894E-06  -0.1438771902E-06
   0.0000000000E+00   0.9976987829E+00   0.2301217075E-02   0.0000000000E+00  -0.4531662051E-07   0.4531662005E-07   0.0000000000E+00  -0.2301171789E-02   0.2301171758E-02   0.2133471283E+03   0.2128702561E-05   0.2256580685E-05   0.2983525209E-06  -0.2138338593E-06  -0.9508519391E-07
   0.0000000000E+00   0.2301217017E-02   0.9976987828E+00   0.0000000000E+00   0.4531662024E-07  -0.4531662069E-07   0.0000000000E+00   0.2301171700E-02  -0.2301171846E-02   0.2133471187E+03  -0.6160816976E-05  -0.6343936231E-05  -0.2880030107E-06   0.1022637060E-06   0.1069025171E-06
   0.1010500000E+01   0.2301217311E-02   0.9976987828E+00   0.2000000000E-06   0.4531661952E-07  -0.4531661917E-07   0.1049980000E-01   0.2301171995E-02  -0.2301171873E-02   0.2133471209E+03  -0.4648229307E-05  -0.4600399390E-05  -0.1228636177E-06   0.4035161852E-06   0.1462760816E-06
   0.1010500000E+01   0.9976987828E+00   0.9976987828E+00   0.2000000000E-06  -0.4531661950E-07  -0.4531661900E-07   0.1049980000E-01  -0.2301171902E-02  -0.2301171881E-02   0.2133471334E+03   0.6328310914E-05   0.6692737140E-05   0.2392855458E-06   0.2933855701E-06  -0.2881512084E-07
   0.0000000000E+00   0.9976987829E+00   0.9976987829E+00   0.0000000000E+00  -0.4531662022E-07  -0.4531662003E-07   0.0000000000E+00  -0.2301171784E-02  -0.2301171777E-02   0.2133471295E+03   0.3314137983E-05   0.3534647279E-05   0.1828276911E-06   0.1435890424E-06   0.6543693968E-07
     1     2     3     4     5     6     7     8
 VARIABLES = X,Y,Z,DU1,DU2,DU3,U1,U2,U3,S11,S22,S33,S12,S13,S23
 ZONE, T="  0.6500D+00" F=FEPOINT, I=    8 J=    1 ET=BRICK
   0.0000000000E+00   0.2324053590E-02   0.2324053557E-02   0.0000000000E+00   0.4597658026E-07   0.4597658042E-07   0.0000000000E+00   0.2324007613E-02   0.2324007580E-02   0.2146050396E+03  -0.6909422022E-05  -0.7149109194E-05  -0.2888726485E-06  -0.2511054662E-06  -0.6606544100E-07
   0.1010600000E+01   0.2324053768E-02   0.2324053844E-02   0.2000000000E-06   0.4597657830E-07   0.4597657886E-07   0.1059980000E-01   0.2324007791E-02   0.2324007868E-02   0.2146050575E+03   0.8408130589E-05   0.8102066142E-05  -0.3157200701E-06  -0.2624128844E-06   0.1553120729E-07
   0.1010600000E+01   0.9976759463E+00   0.2324053755E-02   0.2000000000E-06  -0.4597657835E-07   0.4597657870E-07   0.1059980000E-01  -0.2324007755E-02   0.2324007779E-02   0.2146050582E+03   0.8975916811E-05   0.8947756752E-05   0.2977077212E-06  -0.2109019535E-06  -0.1432357410E-06
   0.0000000000E+00   0.9976759464E+00   0.2324053604E-02   0.0000000000E+00  -0.4597658032E-07   0.4597657981E-07   0.0000000000E+00  -0.2324007659E-02   0.2324007628E-02   0.2146050494E+03   0.1504111356E-05   0.1631849671E-05   0.2959995511E-06  -0.2127832473E-06  -0.9474874445E-07
   0.0000000000E+00   0.2324053547E-02   0.9976759463E+00   0.0000000000E+00   0.4597657998E-07  -0.4597658048E-07   0.0000000000E+00   0.2324007570E-02  -0.2324007716E-02   0.2146050398E+03  -0.6788902034E-05  -0.6970211993E-05  -0.2841320066E-06   0.1052244718E-06   0.1061992649E-06
   0.1010600000E+01   0.2324053840E-02   0.9976759463E+00   0.2000000000E-06   0.4597657926E-07  -0.4597657892E-07   0.1059980000E-01   0.2324007864E-02  -0.2324007742E-02   0.2146050420E+03  -0.5273716760E-05  -0.5226013794E-05  -0.1239636954E-06   0.3974084658E-06   0.1455671102E-06
   0.1010600000E+01   0.9976759463E+00   0.9976759463E+00   0.2000000000E-06  -0.4597657921E-07  -0.4597657864E-07   0.1059980000E-01  -0.2324007771E-02  -0.2324007750E-02   0.2146050545E+03   0.5707586350E-05   0.6068453830E-05   0.2368697652E-06   0.2899289807E-06  -0.2859489286E-07
   0.0000000000E+00   0.9976759464E+00   0.9976759464E+00   0.0000000000E+00  -0.4597657991E-07  -0.4597657974E-07   0.0000000000E+00  -0.2324007653E-02  -0.2324007647E-02   0.2146050506E+03   0.2690321841E-05   0.2909230484E-05   0.1821113962E-06   0.1446417093E-06   0.6531477244E-07
     1     2     3     4     5     6     7     8
 VARIABLES = X,Y,Z,DU1,DU2,DU3,U1,U2,U3,S11,S22,S33,S12,S13,S23
 ZONE, T="  0.6750D+00" F=FEPOINT, I=    8 J=    1 ET=BRICK
   0.0000000000E+00   0.2347157057E-02   0.2347157024E-02   0.0000000000E+00   0.4640933026E-07   0.4640933042E-07   0.0000000000E+00   0.2347110648E-02   0.2347110615E-02   0.2156726122E+03  -0.7239707935E-05  -0.7477145476E-05  -0.2867347061E-06  -0.2495255335E-06  -0.6590584163E-07
   0.1010700000E+01   0.2347157234E-02   0.2347157311E-02   0.2000000000E-06   0.4640932827E-07   0.4640932884E-07   0.1069980000E-01   0.2347110825E-02   0.2347110902E-02   0.2156726302E+03   0.8084352744E-05   0.7780123316E-05  -0.3127517007E-06  -0.2604831868E-06   0.1572908577E-07
   0.1010700000E+01   0.9976528428E+00   0.2347157222E-02   0.2000000000E-06  -0.4640932832E-07   0.4640932869E-07   0.1069980000E-01  -0.2347110789E-02   0.2347110813E-02   0.2156726309E+03   0.8653315992E-05   0.8624713597E-05   0.2953047848E-06  -0.2099190731E-06  -0.1425174242E-06
   0.0000000000E+00   0.9976528429E+00   0.2347157071E-02   0.0000000000E+00  -0.4640933032E-07   0.4640932983E-07   0.0000000000E+00  -0.2347110694E-02   0.2347110662E-02   0.2156726220E+03   0.1177785917E-05   0.1305383558E-05   0.2936494175E-06  -0.2117421799E-06  -0.9437542844E-07
   0.0000000000E+00   0.2347157014E-02   0.9976528428E+00   0.0000000000E+00   0.4640933000E-07  -0.4640933047E-07   0.0000000000E+00   0.2347110604E-02  -0.2347110751E-02   0.2156726125E+03  -0.7118770426E-05  -0.7298275601E-05  -0.2802752227E-06   0.1081648223E-06   0.1054626876E-06
   0.1010700000E+01   0.2347157307E-02   0.9976528428E+00   0.2000000000E-06   0.4640932925E-07  -0.4640932890E-07   0.1069980000E-01   0.2347110898E-02  -0.2347110776E-02   0.2156726147E+03  -0.5601037838E-05  -0.5553501752E-05  -0.1250607925E-06   0.3913116791E-06   0.1447971609E-06
   0.1010700000E+01   0.9976528428E+00   0.9976528428E+00   0.2000000000E-06  -0.4640932921E-07  -0.4640932864E-07   0.1069980000E-01  -0.2347110805E-02  -0.2347110784E-02   0.2156726272E+03   0.5385074691E-05   0.5742407336E-05   0.2344665020E-06   0.2864935538E-06  -0.2838649027E-07
   0.0000000000E+00   0.9976528429E+00   0.9976528429E+00   0.0000000000E+00  -0.4640932992E-07  -0.4640932976E-07   0.0000000000E+00  -0.2347110688E-02  -0.2347110681E-02   0.2156726233E+03   0.2364779207E-05   0.2582082556E-05   0.1814017328E-06   0.1456999517E-06   0.6517507640E-07
     1     2     3     4     5     6     7     8
 VARIABLES = X,Y,Z,DU1,DU2,DU3,U1,U2,U3,S11,S22,S33,S12,S13,S23
 ZONE, T="  0.7000D+00" F=FEPOINT, I=    8 J=    1 ET=BRICK
   0.0000000000E+00   0.2370442338E-02   0.2370442306E-02   0.0000000000E+00   0.4671486175E-07   0.4671486190E-07   0.0000000000E+00   0.2370395623E-02   0.2370395591E-02   0.2166097518E+03  -0.7439821517E-05  -0.7675002347E-05  -0.2845887211E-06  -0.2479453903E-06  -0.6574701260E-07
   0.1010800000E+01   0.2370442515E-02   0.2370442592E-02   0.2000000000E-06   0.4671485976E-07   0.4671486032E-07   0.1079980000E-01   0.2370395800E-02   0.2370395877E-02   0.2166097697E+03   0.7890737120E-05   0.7588412935E-05  -0.3097871954E-06  -0.2585583051E-06   0.1590358766E-07
   0.1010800000E+01   0.9976295575E+00   0.2370442503E-02   0.2000000000E-06  -0.4671485980E-07   0.4671486016E-07   0.1079980000E-01  -0.2370395763E-02   0.2370395788E-02   0.2166097704E+03   0.8460906466E-05   0.8431846423E-05   0.2929040521E-06  -0.2089217567E-06  -0.1418235524E-06
   0.0000000000E+00   0.9976295576E+00   0.2370442352E-02   0.0000000000E+00  -0.4671486182E-07   0.4671486134E-07   0.0000000000E+00  -0.2370395669E-02   0.2370395638E-02   0.2166097616E+03   0.9816678454E-06   0.1109093540E-05   0.2913007566E-06  -0.2106874830E-06  -0.9401042366E-07
   0.0000000000E+00   0.2370442295E-02   0.9976295576E+00   0.0000000000E+00   0.4671486149E-07  -0.4671486195E-07   0.0000000000E+00   0.2370395580E-02  -0.2370395727E-02   0.2166097520E+03  -0.7318468388E-05  -0.7496158674E-05  -0.2764581075E-06   0.1110468058E-06   0.1047232932E-06
   0.1010800000E+01   0.2370442588E-02   0.9976295575E+00   0.2000000000E-06   0.4671486072E-07  -0.4671486037E-07   0.1079980000E-01   0.2370395873E-02  -0.2370395751E-02   0.2166097542E+03  -0.5798209242E-05  -0.5750814170E-05  -0.1261267240E-06   0.3852858019E-06   0.1440577656E-06
   0.1010800000E+01   0.9976295575E+00   0.9976295575E+00   0.2000000000E-06  -0.4671486068E-07  -0.4671486012E-07   0.1079980000E-01  -0.2370395780E-02  -0.2370395759E-02   0.2166097667E+03   0.5192764991E-05   0.5546511666E-05   0.2320756819E-06   0.2830722922E-06  -0.2815913866E-07
   0.0000000000E+00   0.9976295576E+00   0.9976295576E+00   0.0000000000E+00  -0.4671486141E-07  -0.4671486126E-07   0.0000000000E+00  -0.2370395663E-02  -0.2370395657E-02   0.2166097628E+03   0.2169433702E-05   0.2385117046E-05   0.1806802939E-06   0.1467080681E-06   0.6502819382E-07
     1     2     3     4     5     6     7     8
 VARIABLES = X,Y,Z,DU1,DU2,DU3,U1,U2,U3,S11,S22,S33,S12,S13,S23
 ZONE, T="  0.7250D+00" F=FEPOINT, I=    8 J=    1 ET=BRICK
   0.0000000000E+00   0.2393859020E-02   0.2393858988E-02   0.0000000000E+00   0.4694076119E-07   0.4694076134E-07   0.0000000000E+00   0.2393812079E-02   0.2393812047E-02   0.2174519332E+03  -0.7571708085E-05  -0.7804650763E-05  -0.2824508310E-06  -0.2463617879E-06  -0.6556526054E-07
   0.1010900000E+01   0.2393859195E-02   0.2393859273E-02   0.2000000000E-06   0.4694075918E-07   0.4694075973E-07   0.1089980000E-01   0.2393812255E-02   0.2393812332E-02   0.2174519512E+03   0.7765331819E-05   0.7464906375E-05  -0.3068474887E-06  -0.2566369910E-06   0.1609376225E-07
   0.1010900000E+01   0.9976061408E+00   0.2393859184E-02   0.2000000000E-06  -0.4694075916E-07   0.4694075957E-07   0.1089980000E-01  -0.2393812218E-02   0.2393812243E-02   0.2174519519E+03   0.8336693144E-05   0.8307208850E-05   0.2905143451E-06  -0.2079133016E-06  -0.1411221219E-06
   0.0000000000E+00   0.9976061409E+00   0.2393859034E-02   0.0000000000E+00  -0.4694076126E-07   0.4694076072E-07   0.0000000000E+00  -0.2393812125E-02   0.2393812093E-02   0.2174519430E+03   0.8537698875E-06   0.9810207903E-06   0.2889620276E-06  -0.2096228746E-06  -0.9360340896E-07
   0.0000000000E+00   0.2393858977E-02   0.9976061409E+00   0.0000000000E+00   0.4694076088E-07  -0.4694076140E-07   0.0000000000E+00   0.2393812036E-02  -0.2393812183E-02   0.2174519334E+03  -0.7449931138E-05  -0.7625837245E-05  -0.2726897377E-06   0.1138319162E-06   0.1039971904E-06
   0.1010900000E+01   0.2393859269E-02   0.9976061409E+00   0.2000000000E-06   0.4694076011E-07  -0.4694075972E-07   0.1089980000E-01   0.2393812329E-02  -0.2393812206E-02   0.2174519356E+03  -0.5927161982E-05  -0.5879926945E-05  -0.1271417103E-06   0.3793449000E-06   0.1432956336E-06
   0.1010900000E+01   0.9976061408E+00   0.9976061408E+00   0.2000000000E-06  -0.4694076014E-07  -0.4694075959E-07   0.1089980000E-01  -0.2393812236E-02  -0.2393812214E-02   0.2174519481E+03   0.5068648233E-05   0.5418853484E-05   0.2297067090E-06   0.2796916648E-06  -0.2792712487E-07
   0.0000000000E+00   0.9976061409E+00   0.9976061409E+00   0.0000000000E+00  -0.4694076079E-07  -0.4694076065E-07   0.0000000000E+00  -0.2393812119E-02  -0.2393812112E-02   0.2174519442E+03   0.2042306083E-05   0.2256375110E-05   0.1799466726E-06   0.1476664433E-06   0.6487163778E-07
     1     2     3     4     5     6     7     8
 VARIABLES = X,Y,Z,DU1,DU2,DU3,U1,U2,U3,S11,S22,S33,S12,S13,S23
 ZONE, T="  0.7500D+00" F=FEPOINT, I=    8 J=    1 ET=BRICK
   0.0000000000E+00   0.2417374473E-02   0.2417374440E-02   0.0000000000E+00   0.4711337727E-07   0.4711337741E-07   0.0000000000E+00   0.2417327359E-02   0.2417327327E-02   0.2182221143E+03  -0.7663629684E-05  -0.7894353974E-05  -0.2803208598E-06  -0.2447789672E-06  -0.6541536326E-07
   0.1011000000E+01   0.2417374647E-02   0.2417374724E-02   0.2000000000E-06   0.4711337521E-07   0.4711337579E-07   0.1099980000E-01   0.2417327533E-02   0.2417327611E-02   0.2182221322E+03   0.7679840709E-05   0.7381330435E-05  -0.3039351300E-06  -0.2547246483E-06   0.1626744793E-07
   0.1011000000E+01   0.9975826254E+00   0.2417374635E-02   0.2000000000E-06  -0.4711337525E-07   0.4711337560E-07   0.1099980000E-01  -0.2417327497E-02   0.2417327522E-02   0.2182221329E+03   0.8252397318E-05   0.8222497237E-05   0.2881406259E-06  -0.2068979272E-06  -0.1404340153E-06
   0.0000000000E+00   0.9975826255E+00   0.2417374486E-02   0.0000000000E+00  -0.4711337725E-07   0.4711337676E-07   0.0000000000E+00  -0.2417327405E-02   0.2417327373E-02   0.2182221241E+03   0.7658321862E-06   0.8928673841E-06   0.2866380467E-06  -0.2085527136E-06  -0.9323099685E-07
   0.0000000000E+00   0.2417374429E-02   0.9975826254E+00   0.0000000000E+00   0.4711337691E-07  -0.4711337738E-07   0.0000000000E+00   0.2417327315E-02  -0.2417327462E-02   0.2182221145E+03  -0.7541444083E-05  -0.7715563185E-05  -0.2689867312E-06   0.1165140374E-06   0.1032772238E-06
   0.1011000000E+01   0.2417374721E-02   0.9975826254E+00   0.2000000000E-06   0.4711337618E-07  -0.4711337584E-07   0.1099980000E-01   0.2417327608E-02  -0.2417327485E-02   0.2182221167E+03  -0.6016172030E-05  -0.5969091312E-05  -0.1281063082E-06   0.3735122258E-06   0.1425501635E-06
   0.1011000000E+01   0.9975826254E+00   0.9975826254E+00   0.2000000000E-06  -0.4711337615E-07  -0.4711337557E-07   0.1099980000E-01  -0.2417327515E-02  -0.2417327493E-02   0.2182221292E+03   0.4984450133E-05   0.5331133641E-05   0.2273673153E-06   0.2763596275E-06  -0.2769119454E-07
   0.0000000000E+00   0.9975826255E+00   0.9975826255E+00   0.0000000000E+00  -0.4711337691E-07  -0.4711337677E-07   0.0000000000E+00  -0.2417327399E-02  -0.2417327392E-02   0.2182221253E+03   0.1955115335E-05   0.2167569216E-05   0.1792030497E-06   0.1485683667E-06   0.6471210708E-07
     1     2     3     4     5     6     7     8
 VARIABLES = X,Y,Z,DU1,DU2,DU3,U1,U2,U3,S11,S22,S33,S12,S13,S23
 ZONE, T="  0.7750D+00" F=FEPOINT, I=    8 J=    1 ET=BRICK
   0.0000000000E+00   0.2440966361E-02   0.2440966329E-02   0.0000000000E+00   0.4724867095E-07   0.4724867112E-07   0.0000000000E+00   0.2440919113E-02   0.2440919080E-02   0.2189360073E+03  -0.7730464266E-05  -0.7959001130E-05  -0.2782122490E-06  -0.2432071682E-06  -0.6523517698E-07
   0.1011100000E+01   0.2440966535E-02   0.2440966612E-02   0.2000000000E-06   0.4724866892E-07   0.4724866947E-07   0.1109980000E-01   0.2440919286E-02   0.2440919364E-02   0.2189360252E+03   0.7619379179E-05   0.7322776526E-05  -0.3010650035E-06  -0.2528320969E-06   0.1642792356E-07
   0.1011100000E+01   0.9975590335E+00   0.2440966523E-02   0.2000000000E-06  -0.4724866898E-07   0.4724866936E-07   0.1109980000E-01  -0.2440919250E-02   0.2440919274E-02   0.2189360259E+03   0.8193109225E-05   0.8162827434E-05   0.2857839083E-06  -0.2058708017E-06  -0.1397642323E-06
   0.0000000000E+00   0.9975590336E+00   0.2440966375E-02   0.0000000000E+00  -0.4724867097E-07   0.4724867048E-07   0.0000000000E+00  -0.2440919159E-02   0.2440919126E-02   0.2189360171E+03   0.7029441862E-06   0.8297620557E-06   0.2843296928E-06  -0.2074723146E-06  -0.9284121046E-07
   0.0000000000E+00   0.2440966317E-02   0.9975590335E+00   0.0000000000E+00   0.4724867065E-07  -0.4724867113E-07   0.0000000000E+00   0.2440919069E-02  -0.2440919216E-02   0.2189360075E+03  -0.7607857553E-05  -0.7780237957E-05  -0.2653487601E-06   0.1190823371E-06   0.1025348364E-06
   0.1011100000E+01   0.2440966609E-02   0.9975590335E+00   0.2000000000E-06   0.4724866992E-07  -0.4724866955E-07   0.1109980000E-01   0.2440919361E-02  -0.2440919238E-02   0.2189360097E+03  -0.6080104924E-05  -0.6033199937E-05  -0.1290111762E-06   0.3677932973E-06   0.1417858026E-06
   0.1011100000E+01   0.9975590335E+00   0.9975590335E+00   0.2000000000E-06  -0.4724866986E-07  -0.4724866930E-07   0.1109980000E-01  -0.2440919268E-02  -0.2440919245E-02   0.2189360222E+03   0.4925262543E-05   0.5268483509E-05   0.2250674102E-06   0.2730886386E-06  -0.2749013227E-07
   0.0000000000E+00   0.9975590336E+00   0.9975590336E+00   0.0000000000E+00  -0.4724867062E-07  -0.4724867045E-07   0.0000000000E+00  -0.2440919152E-02  -0.2440919145E-02   0.2189360183E+03   0.1892967682E-05   0.2103827474E-05   0.1784561860E-06   0.1494181124E-06   0.6455582767E-07
     1     2     3     4     5     6     7     8
 VARIABLES = X,Y,Z,DU1,DU2,DU3,U1,U2,U3,S11,S22,S33,S12,S13,S23
 ZONE, T="  0.8000D+00" F=FEPOINT, I=    8 J=    1 ET=BRICK
   0.0000000000E+00   0.2464618772E-02   0.2464618740E-02   0.0000000000E+00   0.4735689633E-07   0.4735689645E-07   0.0000000000E+00   0.2464571415E-02   0.2464571383E-02   0.2196048074E+03  -0.7780757866E-05  -0.8007132751E-05  -0.2761181481E-06  -0.2416349294E-06  -0.6505175801E-07
   0.1011200000E+01   0.2464618944E-02   0.2464619022E-02   0.2000000000E-06   0.4735689431E-07   0.4735689483E-07   0.1119980000E-01   0.2464571587E-02   0.2464571665E-02   0.2196048253E+03   0.7575395096E-05   0.7280689610E-05  -0.2982311297E-06  -0.2509483112E-06   0.1661332770E-07
   0.1011200000E+01   0.9975353811E+00   0.2464618933E-02   0.2000000000E-06  -0.4735689436E-07   0.4735689472E-07   0.1119980000E-01  -0.2464571551E-02   0.2464571576E-02   0.2196048260E+03   0.8150285219E-05   0.8119640600E-05   0.2834643388E-06  -0.2048490615E-06  -0.1390778246E-06
   0.0000000000E+00   0.9975353812E+00   0.2464618785E-02   0.0000000000E+00  -0.4735689635E-07   0.4735689586E-07   0.0000000000E+00  -0.2464571461E-02   0.2464571428E-02   0.2196048172E+03   0.6565647696E-06   0.7831544101E-06   0.2820571898E-06  -0.2063987262E-06  -0.9246554140E-07
   0.0000000000E+00   0.2464618728E-02   0.9975353811E+00   0.0000000000E+00   0.4735689599E-07  -0.4735689647E-07   0.0000000000E+00   0.2464571371E-02  -0.2464571519E-02   0.2196048076E+03  -0.7657733361E-05  -0.7828401871E-05  -0.2617911904E-06   0.1215479896E-06   0.1018258264E-06
   0.1011200000E+01   0.2464619020E-02   0.9975353811E+00   0.2000000000E-06   0.4735689525E-07  -0.4735689490E-07   0.1119980000E-01   0.2464571663E-02  -0.2464571540E-02   0.2196048098E+03  -0.6127523631E-05  -0.6080796668E-05  -0.1298671711E-06   0.3622075458E-06   0.1410405346E-06
   0.1011200000E+01   0.9975353811E+00   0.9975353811E+00   0.2000000000E-06  -0.4735689520E-07  -0.4735689467E-07   0.1119980000E-01  -0.2464571570E-02  -0.2464571547E-02   0.2196048223E+03   0.4882534719E-05   0.5222341526E-05   0.2227941866E-06   0.2698712243E-06  -0.2726894366E-07
   0.0000000000E+00   0.9975353812E+00   0.9975353812E+00   0.0000000000E+00  -0.4735689595E-07  -0.4735689583E-07   0.0000000000E+00  -0.2464571454E-02  -0.2464571447E-02   0.2196048184E+03   0.1847319148E-05   0.2056588711E-05   0.1776918717E-06   0.1502042335E-06   0.6439401298E-07
     1     2     3     4     5     6     7     8
 VARIABLES = X,Y,Z,DU1,DU2,DU3,U1,U2,U3,S11,S22,S33,S12,S13,S23
 ZONE, T="  0.8250D+00" F=FEPOINT, I=    8 J=    1 ET=BRICK
   0.0000000000E+00   0.2488320002E-02   0.2488319970E-02   0.0000000000E+00   0.4744493321E-07   0.4744493337E-07   0.0000000000E+00   0.2488272557E-02   0.2488272525E-02   0.2202367461E+03  -0.7819710471E-05  -0.8043960951E-05  -0.2740519890E-06  -0.2400797153E-06  -0.6485519220E-07
   0.1011300000E+01   0.2488320174E-02   0.2488320252E-02   0.2000000000E-06   0.4744493118E-07   0.4744493174E-07   0.1129980000E-01   0.2488272729E-02   0.2488272807E-02   0.2202367640E+03   0.7542675799E-05   0.7249847629E-05  -0.2954471178E-06  -0.2490907505E-06   0.1678112990E-07
   0.1011300000E+01   0.9975116799E+00   0.2488320163E-02   0.2000000000E-06  -0.4744493120E-07   0.4744493162E-07   0.1129980000E-01  -0.2488272692E-02   0.2488272718E-02   0.2202367647E+03   0.8118703066E-05   0.8087718587E-05   0.2811683424E-06  -0.2038202307E-06  -0.1383992330E-06
   0.0000000000E+00   0.9975116800E+00   0.2488320015E-02   0.0000000000E+00  -0.4744493326E-07   0.4744493275E-07   0.0000000000E+00  -0.2488272603E-02   0.2488272570E-02   0.2202367559E+03   0.6214793982E-06   0.7478298045E-06   0.2798068042E-06  -0.2053196545E-06  -0.9209182153E-07
   0.0000000000E+00   0.2488319958E-02   0.9975116799E+00   0.0000000000E+00   0.4744493291E-07  -0.4744493341E-07   0.0000000000E+00   0.2488272513E-02  -0.2488272661E-02   0.2202367463E+03  -0.7696272889E-05  -0.7865266165E-05  -0.2583052259E-06   0.1238996592E-06   0.1011115335E-06
   0.1011300000E+01   0.2488320249E-02   0.9975116799E+00   0.2000000000E-06   0.4744493218E-07  -0.4744493177E-07   0.1129980000E-01   0.2488272805E-02  -0.2488272681E-02   0.2202367485E+03  -0.6163632101E-05  -0.6117090559E-05  -0.1306637179E-06   0.3567468957E-06   0.1402933779E-06
   0.1011300000E+01   0.9975116798E+00   0.9975116799E+00   0.2000000000E-06  -0.4744493217E-07  -0.4744493160E-07   0.1129980000E-01  -0.2488272711E-02  -0.2488272688E-02   0.2202367610E+03   0.4851041836E-05   0.5187503638E-05   0.2205655888E-06   0.2667230965E-06  -0.2705346560E-07
   0.0000000000E+00   0.9975116800E+00   0.9975116800E+00   0.0000000000E+00  -0.4744493285E-07  -0.4744493270E-07   0.0000000000E+00  -0.2488272596E-02  -0.2488272589E-02   0.2202367571E+03   0.1812944795E-05   0.2020646771E-05   0.1769273492E-06   0.1509407260E-06   0.6421393251E-07
     1     2     3     4     5     6     7     8
 VARIABLES = X,Y,Z,DU1,DU2,DU3,U1,U2,U3,S11,S22,S33,S12,S13,S23
 ZONE, T="  0.8500D+00" F=FEPOINT, I=    8 J=    1 ET=BRICK
   0.0000000000E+00   0.2512061224E-02   0.2512061192E-02   0.0000000000E+00   0.4751755941E-07   0.4751755952E-07   0.0000000000E+00   0.2512013707E-02   0.2512013675E-02   0.2208380330E+03  -0.7850647061E-05  -0.8072813074E-05  -0.2720129026E-06  -0.2385349655E-06  -0.6463795554E-07
   0.1011400000E+01   0.2512061395E-02   0.2512061473E-02   0.2000000000E-06   0.4751755735E-07   0.4751755793E-07   0.1139980000E-01   0.2512013877E-02   0.2512013956E-02   0.2208380509E+03   0.7517908443E-05   0.7226911739E-05  -0.2927121305E-06  -0.2472529002E-06   0.1692155386E-07
   0.1011400000E+01   0.9974879386E+00   0.2512061384E-02   0.2000000000E-06  -0.4751755740E-07   0.4751755779E-07   0.1139980000E-01  -0.2512013841E-02   0.2512013866E-02   0.2208380516E+03   0.8095051983E-05   0.8063725869E-05   0.2789192449E-06  -0.2027946280E-06  -0.1376877076E-06
   0.0000000000E+00   0.9974879387E+00   0.2512061237E-02   0.0000000000E+00  -0.4751755945E-07   0.4751755894E-07   0.0000000000E+00  -0.2512013753E-02   0.2512013720E-02   0.2208380427E+03   0.5943473903E-06   0.7204814411E-06   0.2776020037E-06  -0.2042452366E-06  -0.9171197040E-07
   0.0000000000E+00   0.2512061180E-02   0.9974879387E+00   0.0000000000E+00   0.4751755906E-07  -0.4751755955E-07   0.0000000000E+00   0.2512013663E-02  -0.2512013811E-02   0.2208380332E+03  -0.7726786427E-05  -0.7894166477E-05  -0.2548943981E-06   0.1261550517E-06   0.1004159995E-06
   0.1011400000E+01   0.2512061471E-02   0.9974879387E+00   0.2000000000E-06   0.4751755837E-07  -0.4751755799E-07   0.1139980000E-01   0.2512013953E-02  -0.2512013830E-02   0.2208380354E+03  -0.6191769776E-05  -0.6145396667E-05  -0.1314043457E-06   0.3514290274E-06   0.1395538125E-06
   0.1011400000E+01   0.9974879386E+00   0.9974879386E+00   0.2000000000E-06  -0.4751755833E-07  -0.4751755775E-07   0.1139980000E-01  -0.2512013860E-02  -0.2512013837E-02   0.2208380479E+03   0.4827449860E-05   0.5160651307E-05   0.2183607150E-06   0.2636301036E-06  -0.2684376487E-07
   0.0000000000E+00   0.9974879387E+00   0.9974879387E+00   0.0000000000E+00  -0.4751755900E-07  -0.4751755889E-07   0.0000000000E+00  -0.2512013746E-02  -0.2512013738E-02   0.2208380440E+03   0.1786523045E-05   0.1992683800E-05   0.1761418100E-06   0.1516135530E-06   0.6400561196E-07
     1     2     3     4     5     6     7     8
 VARIABLES = X,Y,Z,DU1,DU2,DU3,U1,U2,U3,S11,S22,S33,S12,S13,S23
 ZONE, T="  0.8750D+00" F=FEPOINT, I=    8 J=    1 ET=BRICK
   0.0000000000E+00   0.2535835634E-02   0.2535835602E-02   0.0000000000E+00   0.4757818814E-07   0.4757818830E-07   0.0000000000E+00   0.2535788056E-02   0.2535788024E-02   0.2214134540E+03  -0.7875750004E-05  -0.8095893695E-05  -0.2699951444E-06  -0.2369960960E-06  -0.6445993428E-07
   0.1011500000E+01   0.2535835803E-02   0.2535835882E-02   0.2000000000E-06   0.4757818611E-07   0.4757818670E-07   0.1149980000E-01   0.2535788225E-02   0.2535788304E-02   0.2214134719E+03   0.7498887860E-05   0.7209678721E-05  -0.2900202670E-06  -0.2454301277E-06   0.1703722983E-07
   0.1011500000E+01   0.9974641642E+00   0.2535835792E-02   0.2000000000E-06  -0.4757818617E-07   0.4757818651E-07   0.1149980000E-01  -0.2535788189E-02   0.2535788214E-02   0.2214134726E+03   0.8077121678E-05   0.8045460300E-05   0.2767004599E-06  -0.2017763296E-06  -0.1369605020E-06
   0.0000000000E+00   0.9974641643E+00   0.2535835646E-02   0.0000000000E+00  -0.4757818816E-07   0.4757818764E-07   0.0000000000E+00  -0.2535788102E-02   0.2535788068E-02   0.2214134638E+03   0.5730128570E-06   0.6988680784E-06   0.2754261215E-06  -0.2031796616E-06  -0.9130719528E-07
   0.0000000000E+00   0.2535835589E-02   0.9974641643E+00   0.0000000000E+00   0.4757818780E-07  -0.4757818831E-07   0.0000000000E+00   0.2535788011E-02  -0.2535788159E-02   0.2214134543E+03  -0.7751509207E-05  -0.7917260111E-05  -0.2515679398E-06   0.1282999306E-06   0.9971449597E-07
   0.1011500000E+01   0.2535835880E-02   0.9974641642E+00   0.2000000000E-06   0.4757818710E-07  -0.4757818678E-07   0.1149980000E-01   0.2535788302E-02  -0.2535788178E-02   0.2214134565E+03  -0.6214126776E-05  -0.6167910127E-05  -0.1320995278E-06   0.3462374768E-06   0.1388006370E-06
   0.1011500000E+01   0.9974641642E+00   0.9974641642E+00   0.2000000000E-06  -0.4757818704E-07  -0.4757818644E-07   0.1149980000E-01  -0.2535788208E-02  -0.2535788185E-02   0.2214134689E+03   0.4809559141E-05   0.5139591750E-05   0.2162001345E-06   0.2606066737E-06  -0.2663169596E-07
   0.0000000000E+00   0.9974641643E+00   0.9974641643E+00   0.0000000000E+00  -0.4757818776E-07  -0.4757818761E-07   0.0000000000E+00  -0.2535788094E-02  -0.2535788087E-02   0.2214134651E+03   0.1765844995E-05   0.1970505981E-05   0.1753561672E-06   0.1522381614E-06   0.6382485751E-07
     1     2     3     4     5     6     7     8
 VARIABLES = X,Y,Z,DU1,DU2,DU3,U1,U2,U3,S11,S22,S33,S12,S13,S23
 ZONE, T="  0.9000D+00" F=FEPOINT, I=    8 J=    1 ET=BRICK
   0.0000000000E+00   0.2559637889E-02   0.2559637857E-02   0.0000000000E+00   0.4762931697E-07   0.4762931716E-07   0.0000000000E+00   0.2559590259E-02   0.2559590227E-02   0.2219667665E+03  -0.7896530904E-05  -0.8114691627E-05  -0.2680016825E-06  -0.2354739732E-06  -0.6427431855E-07
   0.1011600000E+01   0.2559638057E-02   0.2559638136E-02   0.2000000000E-06   0.4762931500E-07   0.4762931553E-07   0.1159980000E-01   0.2559590427E-02   0.2559590507E-02   0.2219667843E+03   0.7484093961E-05   0.7196673223E-05  -0.2873741614E-06  -0.2436331602E-06   0.1717907300E-07
   0.1011600000E+01   0.9974403620E+00   0.2559638046E-02   0.2000000000E-06  -0.4762931503E-07   0.4762931541E-07   0.1159980000E-01  -0.2559590391E-02   0.2559590417E-02   0.2219667850E+03   0.8063402930E-05   0.8031436660E-05   0.2745147135E-06  -0.2007587004E-06  -0.1362702677E-06
   0.0000000000E+00   0.9974403621E+00   0.2559637901E-02   0.0000000000E+00  -0.4762931698E-07   0.4762931650E-07   0.0000000000E+00  -0.2559590305E-02   0.2559590271E-02   0.2219667762E+03   0.5559450156E-06   0.6815266012E-06   0.2732819301E-06  -0.2021162478E-06  -0.9092683413E-07
   0.0000000000E+00   0.2559637844E-02   0.9974403620E+00   0.0000000000E+00   0.4762931669E-07  -0.4762931716E-07   0.0000000000E+00   0.2559590215E-02  -0.2559590363E-02   0.2219667667E+03  -0.7771910151E-05  -0.7936077544E-05  -0.2483224832E-06   0.1303468457E-06   0.9902306752E-07
   0.1011600000E+01   0.2559638134E-02   0.9974403620E+00   0.2000000000E-06   0.4762931594E-07  -0.4762931558E-07   0.1159980000E-01   0.2559590505E-02  -0.2559590381E-02   0.2219667689E+03  -0.6232190357E-05  -0.6186144908E-05  -0.1327479099E-06   0.3411811214E-06   0.1380436531E-06
   0.1011600000E+01   0.9974403620E+00   0.9974403620E+00   0.2000000000E-06  -0.4762931591E-07  -0.4762931537E-07   0.1159980000E-01  -0.2559590412E-02  -0.2559590388E-02   0.2219667813E+03   0.4795891717E-05   0.5122798491E-05   0.2140811599E-06   0.2576452723E-06  -0.2642328855E-07
   0.0000000000E+00   0.9974403621E+00   0.9974403621E+00   0.0000000000E+00  -0.4762931666E-07  -0.4762931648E-07   0.0000000000E+00  -0.2559590298E-02  -0.2559590290E-02   0.2219667775E+03   0.1749423303E-05   0.1952606579E-05   0.1745684418E-06   0.1528088611E-06   0.6362068201E-07
     1     2     3     4     5     6     7     8
 VARIABLES = X,Y,Z,DU1,DU2,DU3,U1,U2,U3,S11,S22,S33,S12,S13,S23
 ZONE, T="  0.9250D+00" F=FEPOINT, I=    8 J=    1 ET=BRICK
   0.0000000000E+00   0.2583463728E-02   0.2583463696E-02   0.0000000000E+00   0.4767281141E-07   0.4767281158E-07   0.0000000000E+00   0.2583416055E-02   0.2583416023E-02   0.2225009670E+03  -0.7914037367E-05  -0.8130252632E-05  -0.2660434216E-06  -0.2339777529E-06  -0.6409219494E-07
   0.1011700000E+01   0.2583463895E-02   0.2583463975E-02   0.2000000000E-06   0.4767280941E-07   0.4767280994E-07   0.1169980000E-01   0.2583416223E-02   0.2583416302E-02   0.2225009849E+03   0.7472484163E-05   0.7186841601E-05  -0.2847841942E-06  -0.2418708726E-06   0.1727449666E-07
   0.1011700000E+01   0.9974165361E+00   0.2583463885E-02   0.2000000000E-06  -0.4767280945E-07   0.4767280985E-07   0.1169980000E-01  -0.2583416186E-02   0.2583416212E-02   0.2225009856E+03   0.8052862927E-05   0.8020586681E-05   0.2723513548E-06  -0.1997337543E-06  -0.1355829739E-06
   0.0000000000E+00   0.9974165362E+00   0.2583463740E-02   0.0000000000E+00  -0.4767281142E-07   0.4767281092E-07   0.0000000000E+00  -0.2583416101E-02   0.2583416067E-02   0.2225009768E+03   0.5421108035E-06   0.6673835521E-06   0.2711587495E-06  -0.2010470401E-06  -0.9052039349E-07
   0.0000000000E+00   0.2583463683E-02   0.9974165362E+00   0.0000000000E+00   0.4767281109E-07  -0.4767281159E-07   0.0000000000E+00   0.2583416011E-02  -0.2583416159E-02   0.2225009672E+03  -0.7789052209E-05  -0.7951642832E-05  -0.2451464424E-06   0.1322857711E-06   0.9835330737E-07
   0.1011700000E+01   0.2583463973E-02   0.9974165362E+00   0.2000000000E-06   0.4767281039E-07  -0.4767280999E-07   0.1169980000E-01   0.2583416300E-02  -0.2583416176E-02   0.2225009694E+03  -0.6247025025E-05  -0.6201131391E-05  -0.1333404209E-06   0.3362453241E-06   0.1373203961E-06
   0.1011700000E+01   0.9974165361E+00   0.9974165361E+00   0.2000000000E-06  -0.4767281035E-07  -0.4767280981E-07   0.1169980000E-01  -0.2583416207E-02  -0.2583416183E-02   0.2225009819E+03   0.4785395537E-05   0.5109225404E-05   0.2120143428E-06   0.2547581534E-06  -0.2621974440E-07
   0.0000000000E+00   0.9974165362E+00   0.9974165362E+00   0.0000000000E+00  -0.4767281106E-07  -0.4767281090E-07   0.0000000000E+00  -0.2583416093E-02  -0.2583416086E-02   0.2225009780E+03   0.1736210448E-05   0.1937935065E-05   0.1737900268E-06   0.1533401846E-06   0.6344018599E-07
     1     2     3     4     5     6     7     8
 VARIABLES = X,Y,Z,DU1,DU2,DU3,U1,U2,U3,S11,S22,S33,S12,S13,S23
 ZONE, T="  0.9500D+00" F=FEPOINT, I=    8 J=    1 ET=BRICK
   0.0000000000E+00   0.2607309706E-02   0.2607309674E-02   0.0000000000E+00   0.4771008984E-07   0.4771009000E-07   0.0000000000E+00   0.2607261996E-02   0.2607261964E-02   0.2230184796E+03  -0.7929020685E-05  -0.8143329482E-05  -0.2641167260E-06  -0.2324930395E-06  -0.6388538048E-07
   0.1011800000E+01   0.2607309872E-02   0.2607309952E-02   0.2000000000E-06   0.4771008786E-07   0.4771008841E-07   0.1179980000E-01   0.2607262162E-02   0.2607262242E-02   0.2230184974E+03   0.7463330286E-05   0.7179407179E-05  -0.2822463017E-06  -0.2401287378E-06   0.1739344023E-07
   0.1011800000E+01   0.9973926902E+00   0.2607309862E-02   0.2000000000E-06  -0.4771008788E-07   0.4771008822E-07   0.1179980000E-01  -0.2607262126E-02   0.2607262152E-02   0.2230184981E+03   0.8044745377E-05   0.8012182011E-05   0.2702321170E-06  -0.1987169760E-06  -0.1348778882E-06
   0.0000000000E+00   0.9973926902E+00   0.2607309718E-02   0.0000000000E+00  -0.4771008985E-07   0.4771008933E-07   0.0000000000E+00  -0.2607262042E-02   0.2607262008E-02   0.2230184893E+03   0.5307407851E-06   0.6557261826E-06   0.2690783974E-06  -0.1999874157E-06  -0.9012002412E-07
   0.0000000000E+00   0.2607309661E-02   0.9973926902E+00   0.0000000000E+00   0.4771008949E-07  -0.4771009000E-07   0.0000000000E+00   0.2607261951E-02  -0.2607262100E-02   0.2230184798E+03  -0.7803666512E-05  -0.7964741104E-05  -0.2420426489E-06   0.1341305517E-06   0.9769420199E-07
   0.1011800000E+01   0.2607309951E-02   0.9973926902E+00   0.2000000000E-06   0.4771008877E-07  -0.4771008845E-07   0.1179980000E-01   0.2607262241E-02  -0.2607262116E-02   0.2230184820E+03  -0.6259375919E-05  -0.6213640126E-05  -0.1338827077E-06   0.3314386949E-06   0.1365722114E-06
   0.1011800000E+01   0.9973926901E+00   0.9973926902E+00   0.2000000000E-06  -0.4771008876E-07  -0.4771008820E-07   0.1179980000E-01  -0.2607262147E-02  -0.2607262123E-02   0.2230184944E+03   0.4777295308E-05   0.5098150584E-05   0.2099778272E-06   0.2519337379E-06  -0.2600127276E-07
   0.0000000000E+00   0.9973926903E+00   0.9973926903E+00   0.0000000000E+00  -0.4771008947E-07  -0.4771008930E-07   0.0000000000E+00  -0.2607262034E-02  -0.2607262027E-02   0.2230184906E+03   0.1725453964E-05   0.1925747774E-05   0.1730000418E-06   0.1538231791E-06   0.6324144283E-07
     1     2     3     4     5     6     7     8
 VARIABLES = X,Y,Z,DU1,DU2,DU3,U1,U2,U3,S11,S22,S33,S12,S13,S23
 ZONE, T="  0.9750D+00" F=FEPOINT, I=    8 J=    1 ET=BRICK
   0.0000000000E+00   0.2631173001E-02   0.2631172969E-02   0.0000000000E+00   0.4774224790E-07   0.4774224803E-07   0.0000000000E+00   0.2631125258E-02   0.2631125227E-02   0.2235212890E+03  -0.7942024051E-05  -0.8154467831E-05  -0.2622127233E-06  -0.2310226667E-06  -0.6367657102E-07
   0.1011900000E+01   0.2631173166E-02   0.2631173246E-02   0.2000000000E-06   0.4774224591E-07   0.4774224648E-07   0.1189980000E-01   0.2631125424E-02   0.2631125504E-02   0.2235213069E+03   0.7456061954E-05   0.7173852401E-05  -0.2797510973E-06  -0.2384093615E-06   0.1750415637E-07
   0.1011900000E+01   0.9973688269E+00   0.2631173156E-02   0.2000000000E-06  -0.4774224593E-07   0.4774224629E-07   0.1189980000E-01  -0.2631125387E-02   0.2631125414E-02   0.2235213076E+03   0.8038490332E-05   0.8005668139E-05   0.2681480121E-06  -0.1977057002E-06  -0.1341902657E-06
   0.0000000000E+00   0.9973688270E+00   0.2631173012E-02   0.0000000000E+00  -0.4774224794E-07   0.4774224742E-07   0.0000000000E+00  -0.2631125304E-02   0.2631125270E-02   0.2235212988E+03   0.5212895214E-06   0.6459882914E-06   0.2670318980E-06  -0.1989347093E-06  -0.8971934072E-07
   0.0000000000E+00   0.2631172955E-02   0.9973688269E+00   0.0000000000E+00   0.4774224755E-07  -0.4774224806E-07   0.0000000000E+00   0.2631125213E-02  -0.2631125362E-02   0.2235212893E+03  -0.7816300604E-05  -0.7975901093E-05  -0.2390193479E-06   0.1358869699E-06   0.9704666397E-07
   0.1011900000E+01   0.2631173245E-02   0.9973688269E+00   0.2000000000E-06   0.4774224686E-07  -0.4774224651E-07   0.1189980000E-01   0.2631125502E-02  -0.2631125378E-02   0.2235212914E+03  -0.6269775856E-05  -0.6224213093E-05  -0.1343863125E-06   0.3267611885E-06   0.1358398896E-06
   0.1011900000E+01   0.9973688268E+00   0.9973688269E+00   0.2000000000E-06  -0.4774224685E-07  -0.4774224627E-07   0.1189980000E-01  -0.2631125409E-02  -0.2631125384E-02   0.2235213039E+03   0.4771068077E-05   0.5088996957E-05   0.2079807420E-06   0.2491677624E-06  -0.2580553230E-07
   0.0000000000E+00   0.9973688270E+00   0.9973688270E+00   0.0000000000E+00  -0.4774224749E-07  -0.4774224737E-07   0.0000000000E+00  -0.2631125296E-02  -0.2631125289E-02   0.2235213000E+03   0.1716606621E-05   0.1915494156E-05   0.1722087466E-06   0.1542564638E-06   0.6303035990E-07
     1     2     3     4     5     6     7     8
 VARIABLES = X,Y,Z,DU1,DU2,DU3,U1,U2,U3,S11,S22,S33,S12,S13,S23
 ZONE, T="  0.1000D+01" F=FEPOINT, I=    8 J=    1 ET=BRICK
   0.0000000000E+00   0.2655051275E-02   0.2655051243E-02   0.0000000000E+00   0.4777014383E-07   0.4777014396E-07   0.0000000000E+00   0.2655003505E-02   0.2655003473E-02   0.2240110390E+03  -0.7953464313E-05  -0.8164068341E-05  -0.2603435550E-06  -0.2295746404E-06  -0.6346978298E-07
   0.1012000000E+01   0.2655051439E-02   0.2655051519E-02   0.2000000000E-06   0.4777014188E-07   0.4777014243E-07   0.1199980000E-01   0.2655003669E-02   0.2655003749E-02   0.2240110568E+03   0.7450274604E-05   0.7169760716E-05  -0.2773101506E-06  -0.2367205047E-06   0.1759159031E-07
   0.1012000000E+01   0.9973449486E+00   0.2655051429E-02   0.2000000000E-06  -0.4777014190E-07   0.4777014225E-07   0.1199980000E-01  -0.2655003633E-02   0.2655003659E-02   0.2240110575E+03   0.8033698390E-05   0.8000640278E-05   0.2660864424E-06  -0.1966927715E-06  -0.1335156698E-06
   0.0000000000E+00   0.9973449487E+00   0.2655051286E-02   0.0000000000E+00  -0.4777014387E-07   0.4777014338E-07   0.0000000000E+00  -0.2655003551E-02   0.2655003516E-02   0.2240110487E+03   0.5133664033E-06   0.6377558521E-06   0.2650066817E-06  -0.1978817245E-06  -0.8933649341E-07
   0.0000000000E+00   0.2655051229E-02   0.9973449486E+00   0.0000000000E+00   0.4777014351E-07  -0.4777014399E-07   0.0000000000E+00   0.2655003459E-02  -0.2655003609E-02   0.2240110392E+03  -0.7827372183E-05  -0.7985522965E-05  -0.2360623103E-06   0.1375413034E-06   0.9638546185E-07
   0.1012000000E+01   0.2655051518E-02   0.9973449486E+00   0.2000000000E-06   0.4777014280E-07  -0.4777014246E-07   0.1199980000E-01   0.2655003748E-02  -0.2655003623E-02   0.2240110414E+03  -0.6278635485E-05  -0.6233259793E-05  -0.1348401325E-06   0.3221932383E-06   0.1351004199E-06
   0.1012000000E+01   0.9973449486E+00   0.9973449486E+00   0.2000000000E-06  -0.4777014278E-07  -0.4777014223E-07   0.1199980000E-01  -0.2655003655E-02  -0.2655003630E-02   0.2240110538E+03   0.4766304786E-05   0.5081371033E-05   0.2060344679E-06   0.2464762261E-06  -0.2563693145E-07
   0.0000000000E+00   0.9973449487E+00   0.9973449487E+00   0.0000000000E+00  -0.4777014345E-07  -0.4777014333E-07   0.0000000000E+00  -0.2655003542E-02  -0.2655003535E-02   0.2240110500E+03   0.1709270537E-05   0.1906765317E-05   0.1714285298E-06   0.1546589003E-06   0.6285163662E-07
     1     2     3     4     5     6     7     8
