 VARIABLES = X,Y,Z,S11,S22,S33,S12,S13,S23
 ZONE, T="  0.1000D+01" F=FEPOINT, I=   12 J=    2 ET=BRICK
   0.0000000000E+00   0.0000000000E+00   0.0000000000E+00   0.2482779243E+00   0.3933860750E-08   0.3933861585E-08  -0.1506433344E-15   0.2977710835E-15   0.3798058283E-16
   0.1075000000E+01  -0.1150947333E-15   0.1885206844E-15   0.2482779242E+00   0.3933833175E-08   0.3933833011E-08  -0.1488890784E-15  -0.5183316323E-16  -0.6333992259E-16
   0.1075000000E+01   0.9646851629E+00  -0.1118122037E-15   0.2482779242E+00   0.3933813902E-08   0.3933813731E-08  -0.1257682186E-15   0.7391657090E-16  -0.8448642925E-16
   0.0000000000E+00   0.9646851629E+00   0.0000000000E+00   0.2482779242E+00   0.3933770610E-08   0.3933770704E-08   0.4265199375E-16  -0.1229231381E-15   0.3050178857E-15
   0.0000000000E+00   0.4310215456E-16   0.9646851629E+00   0.2482779242E+00   0.3934065381E-08   0.3934065324E-08   0.1758573379E-15  -0.1896159946E-15  -0.2380545692E-15
   0.1075000000E+01   0.1115535448E-15   0.9646851629E+00   0.2482779242E+00   0.3933771428E-08   0.3933771557E-08   0.2076814837E-15  -0.2646608019E-15   0.6744543778E-16
   0.1075000000E+01   0.9646851629E+00   0.9646851629E+00   0.2482779242E+00   0.3933843333E-08   0.3933843468E-08   0.2234512930E-15   0.2657930737E-15   0.4629893110E-16
   0.0000000000E+00   0.9646851629E+00   0.9646851629E+00   0.2482779242E+00   0.3933971451E-08   0.3933970599E-08  -0.2580130998E-15   0.4459554576E-16   0.2898273361E-16
   0.2150000000E+01  -0.1736562496E-15   0.1592250308E-15   0.2482779242E+00   0.3933786948E-08   0.3933787334E-08  -0.4516844044E-16  -0.6138059517E-16  -0.3089958747E-15
   0.2150000000E+01   0.9646851629E+00  -0.2655516554E-15   0.2482779242E+00   0.3933887391E-08   0.3933888573E-08  -0.1922220489E-15  -0.2257456675E-15  -0.5342861644E-16
   0.2150000000E+01  -0.1173039213E-15   0.9646851629E+00   0.2482779242E+00   0.3933909646E-08   0.3933908745E-08  -0.3635213499E-15   0.3512053884E-18  -0.1147548513E-16
   0.2150000000E+01   0.9646851629E+00   0.9646851629E+00   0.2482779242E+00   0.3933965271E-08   0.3933965112E-08   0.1018887064E-15  -0.9511345802E-17   0.2440917730E-15
     1     2     3     4     5     6     7     8
     2     9    10     3     6    11    12     7
 VARIABLES = X,Y,Z,S11,S22,S33,S12,S13,S23
 ZONE, T="  0.2000D+01" F=FEPOINT, I=   12 J=    2 ET=BRICK
   0.0000000000E+00   0.0000000000E+00   0.0000000000E+00   0.5760459561E+00   0.4307606605E-07   0.4307606554E-07   0.4982668081E-16  -0.2033603269E-15   0.1041884741E-15
   0.1150000000E+01  -0.2865846183E-16  -0.9452921160E-16   0.5760459561E+00   0.4307590837E-07   0.4307590842E-07   0.4940574022E-16   0.7880237052E-16   0.8271743508E-16
   0.1150000000E+01   0.9329522334E+00   0.4790988816E-16   0.5760459560E+00   0.4307586617E-07   0.4307586594E-07   0.1324486611E-15   0.5588788504E-17   0.9269405792E-16
   0.0000000000E+00   0.9329522334E+00   0.0000000000E+00   0.5760459560E+00   0.4307600299E-07   0.4307600302E-07  -0.3994790079E-15   0.2133460383E-15  -0.1961950644E-15
   0.0000000000E+00   0.1408422763E-15   0.9329522334E+00   0.5760459560E+00   0.4307577013E-07   0.4307577010E-07  -0.3412905444E-15   0.1767412148E-15   0.2139290460E-15
   0.1150000000E+01  -0.5732589549E-16   0.9329522334E+00   0.5760459560E+00   0.4307586978E-07   0.4307586988E-07   0.1674941308E-15   0.7080108875E-17  -0.9616049781E-16
   0.1150000000E+01   0.9329522334E+00   0.9329522334E+00   0.5760459559E+00   0.4307589395E-07   0.4307589377E-07   0.2227803663E-15   0.1733195423E-15  -0.8618387495E-16
   0.0000000000E+00   0.9329522334E+00   0.9329522334E+00   0.5760459559E+00   0.4307607167E-07   0.4307607218E-07   0.1105256121E-15  -0.3862265137E-15  -0.8645449249E-16
   0.2300000000E+01  -0.2996862097E-15  -0.7535629903E-17   0.5760459560E+00   0.4307580034E-07   0.4307579925E-07  -0.4709534102E-15   0.2593577516E-15  -0.3583414288E-16
   0.2300000000E+01   0.9329522334E+00  -0.2459461249E-15   0.5760459560E+00   0.4307604578E-07   0.4307604622E-07   0.1444381202E-15  -0.5473143245E-15  -0.3603747891E-15
   0.2300000000E+01  -0.1072885665E-15   0.9329522334E+00   0.5760459560E+00   0.4307588502E-07   0.4307588461E-07  -0.5892830278E-18  -0.2641883134E-15   0.3172502458E-15
   0.2300000000E+01   0.9329522334E+00   0.9329522334E+00   0.5760459559E+00   0.4307589781E-07   0.4307589898E-07  -0.3418329685E-15   0.3877197352E-15  -0.7290400358E-17
     1     2     3     4     5     6     7     8
     2     9    10     3     6    11    12     7
 VARIABLES = X,Y,Z,S11,S22,S33,S12,S13,S23
 ZONE, T="  0.3000D+01" F=FEPOINT, I=   12 J=    2 ET=BRICK
   0.0000000000E+00   0.0000000000E+00   0.0000000000E+00   0.1049168658E+01   0.4202653036E-07   0.4202652947E-07   0.6943112685E-15  -0.7433766442E-15  -0.2105486133E-15
   0.1225000000E+01   0.2324163407E-15  -0.2566837360E-15   0.1049168657E+01   0.4202640629E-07   0.4202640735E-07  -0.1427598080E-15  -0.1884493307E-15   0.3191659927E-16
   0.1225000000E+01   0.9042970425E+00   0.2852676092E-15   0.1049168657E+01   0.4202628558E-07   0.4202628568E-07   0.3103870213E-15  -0.8739188366E-15   0.2158750664E-15
   0.0000000000E+00   0.9042970425E+00   0.0000000000E+00   0.1049168657E+01   0.4202650882E-07   0.4202650891E-07  -0.2081279448E-15   0.6067701272E-15  -0.2951420165E-15
   0.0000000000E+00  -0.3246843059E-15   0.9042970425E+00   0.1049168657E+01   0.4202632512E-07   0.4202632460E-07  -0.8302471444E-16   0.3810940451E-15   0.1346980299E-15
   0.1225000000E+01  -0.2561202592E-15   0.9042970425E+00   0.1049168657E+01   0.4202656853E-07   0.4202656849E-07  -0.5401134880E-15   0.1281591229E-15  -0.2550110361E-15
   0.1225000000E+01   0.9042970425E+00   0.9042970425E+00   0.1049168657E+01   0.4202638291E-07   0.4202638168E-07  -0.1187669071E-14  -0.1095615427E-14  -0.7105256890E-16
   0.0000000000E+00   0.9042970425E+00   0.9042970425E+00   0.1049168657E+01   0.4202649569E-07   0.4202649621E-07   0.6882041552E-15  -0.7256179544E-15   0.5010462659E-16
   0.2450000000E+01  -0.1089672372E-15   0.2411538945E-17   0.1049168657E+01   0.4202639044E-07   0.4202638907E-07  -0.9464793733E-15   0.6938746019E-15   0.5482283292E-15
   0.2450000000E+01   0.9042970425E+00   0.4433549138E-15   0.1049168657E+01   0.4202670633E-07   0.4202670525E-07   0.8622534984E-15   0.2204873288E-15  -0.3386947260E-15
   0.2450000000E+01   0.2690267598E-15   0.9042970425E+00   0.1049168657E+01   0.4202624596E-07   0.4202624714E-07   0.1233234224E-14   0.2026208198E-15   0.5193746900E-15
   0.2450000000E+01   0.9042970425E+00   0.9042970425E+00   0.1049168657E+01   0.4202623927E-07   0.4202624080E-07  -0.8331058122E-15   0.1109482230E-14  -0.3675483651E-15
     1     2     3     4     5     6     7     8
     2     9    10     3     6    11    12     7
 VARIABLES = X,Y,Z,S11,S22,S33,S12,S13,S23
 ZONE, T="  0.4000D+01" F=FEPOINT, I=   12 J=    2 ET=BRICK
   0.0000000000E+00   0.0000000000E+00   0.0000000000E+00   0.1776904910E+01   0.3260085682E-07   0.3260085661E-07   0.4394092737E-15  -0.8542744073E-15  -0.1674425920E-15
   0.1300000000E+01   0.1499641308E-15  -0.2817388843E-15   0.1776904910E+01   0.3260089416E-07   0.3260089520E-07   0.3684245607E-15   0.2685526329E-15   0.7210744388E-16
   0.1300000000E+01   0.8783542305E+00   0.2423809207E-15   0.1776904910E+01   0.3260075043E-07   0.3260075055E-07   0.9518775571E-16  -0.4422783239E-16   0.1963145172E-15
   0.0000000000E+00   0.8783542305E+00   0.0000000000E+00   0.1776904910E+01   0.3260108002E-07   0.3260107990E-07  -0.2598773251E-15   0.7573081985E-15  -0.3567224214E-15
   0.0000000000E+00  -0.2731968499E-15   0.8783542305E+00   0.1776904910E+01   0.3260092684E-07   0.3260092674E-07  -0.2291241202E-16   0.5437852115E-15   0.6664310319E-16
   0.1300000000E+01  -0.2565244622E-15   0.8783542305E+00   0.1776904910E+01   0.3260101551E-07   0.3260101575E-07  -0.7171760908E-15   0.6059255275E-15  -0.1651699398E-15
   0.1300000000E+01   0.8783542305E+00   0.8783542305E+00   0.1776904909E+01   0.3260087099E-07   0.3260087053E-07  -0.3398922440E-15  -0.1415786644E-15  -0.4096286646E-16
   0.0000000000E+00   0.8783542305E+00   0.8783542305E+00   0.1776904910E+01   0.3260075377E-07   0.3260075413E-07   0.8052119254E-15  -0.4111301874E-15  -0.1226367262E-15
   0.2600000000E+01   0.2233585300E-15  -0.2433199301E-15   0.1776904910E+01   0.3260111790E-07   0.3260111778E-07   0.2540633647E-15   0.5495954110E-15   0.8417385485E-17
   0.2600000000E+01   0.8783542305E+00   0.1413309256E-15   0.1776904910E+01   0.3260087467E-07   0.3260087464E-07   0.4068763534E-15  -0.6417283625E-15   0.1204929893E-15
   0.2600000000E+01  -0.1582069930E-15   0.8783542305E+00   0.1776904910E+01   0.3260088366E-07   0.3260088388E-07   0.2100269744E-15  -0.1737184183E-15   0.1847745586E-17
   0.2600000000E+01   0.8783542305E+00   0.8783542305E+00   0.1776904909E+01   0.3260103705E-07   0.3260103685E-07   0.1364703306E-15   0.3320083592E-15   0.1139233494E-15
     1     2     3     4     5     6     7     8
     2     9    10     3     6    11    12     7
 VARIABLES = X,Y,Z,S11,S22,S33,S12,S13,S23
 ZONE, T="  0.5000D+01" F=FEPOINT, I=   12 J=    2 ET=BRICK
   0.0000000000E+00   0.0000000000E+00   0.0000000000E+00   0.2953465843E+01   0.1732983457E-07   0.1732983579E-07  -0.7264808898E-12  -0.5381123672E-12  -0.1535456871E-12
   0.1375000000E+01  -0.1393083102E-12  -0.1027983589E-12   0.2953465843E+01   0.1732941995E-07   0.1732941868E-07  -0.1201837443E-13  -0.5646064654E-14   0.1452398681E-12
   0.1375000000E+01   0.8548945708E+00   0.1046100609E-12   0.2953465842E+01   0.1732936964E-07   0.1732936792E-07  -0.1191714715E-13   0.5700264861E-14   0.1453005326E-12
   0.0000000000E+00   0.8548945708E+00   0.0000000000E+00   0.2953465842E+01   0.1732953429E-07   0.1732953579E-07  -0.7186406390E-12   0.5473098763E-12  -0.1537194201E-12
   0.0000000000E+00  -0.2489705842E-12   0.8548945708E+00   0.2953465842E+01   0.1732934102E-07   0.1732934353E-07   0.7182160426E-12  -0.5466473747E-12  -0.1535902091E-12
   0.1375000000E+01  -0.1112161458E-12   0.8548945708E+00   0.2953465842E+01   0.1732961787E-07   0.1732961570E-07   0.1255682110E-13  -0.6440600725E-14   0.1452052496E-12
   0.1375000000E+01   0.8548945708E+00   0.8548945708E+00   0.2953465842E+01   0.1732959478E-07   0.1732959205E-07   0.1314539620E-13   0.5980784418E-14   0.1452659141E-12
   0.0000000000E+00   0.8548945708E+00   0.8548945708E+00   0.2953465842E+01   0.1732961107E-07   0.1732961365E-07   0.7278283345E-12   0.5381711015E-12  -0.1537639421E-12
   0.2750000000E+01  -0.5935557331E-14  -0.2058927563E-14   0.2953465843E+01   0.1732939334E-07   0.1732939361E-07   0.7056163516E-12   0.5306241641E-12  -0.1434010568E-12
   0.2750000000E+01   0.8548945708E+00   0.2424198801E-14   0.2953465842E+01   0.1733005226E-07   0.1733005432E-07   0.6979785554E-12  -0.5387294944E-12  -0.1434044870E-12
   0.2750000000E+01  -0.2429412208E-12   0.8548945708E+00   0.2953465842E+01   0.1732951215E-07   0.1732951418E-07  -0.6972793676E-12   0.5375700996E-12  -0.1430636073E-12
   0.2750000000E+01   0.8548945708E+00   0.8548945708E+00   0.2953465842E+01   0.1732941939E-07   0.1732942251E-07  -0.7057145092E-12  -0.5290296804E-12  -0.1430670375E-12
     1     2     3     4     5     6     7     8
     2     9    10     3     6    11    12     7
 VARIABLES = X,Y,Z,S11,S22,S33,S12,S13,S23
 ZONE, T="  0.6000D+01" F=FEPOINT, I=   12 J=    2 ET=BRICK
   0.0000000000E+00   0.0000000000E+00   0.0000000000E+00   0.4935644982E+01   0.6681590182E-05   0.6681590182E-05   0.1072877220E-11   0.1369830886E-11  -0.2202800228E-12
   0.1450000000E+01   0.8295732562E-13   0.1063051829E-12   0.4935644982E+01   0.6681592927E-05   0.6681592931E-05  -0.7914734466E-12  -0.1037799532E-11  -0.4572742813E-12
   0.1450000000E+01   0.8338497831E+00  -0.1083671399E-12   0.4935644981E+01   0.6681592729E-05   0.6681592732E-05  -0.7884017108E-12   0.1041018513E-11  -0.4571563185E-12
   0.0000000000E+00   0.8338497831E+00   0.0000000000E+00   0.4935644982E+01   0.6681595439E-05   0.6681595435E-05   0.1054091808E-11  -0.1387132954E-11  -0.2204455977E-12
   0.0000000000E+00  -0.3505058839E-12   0.8338497831E+00   0.4935644982E+01   0.6681595821E-05   0.6681595821E-05  -0.1048182908E-11   0.1378371451E-11  -0.2225048467E-12
   0.1450000000E+01  -0.4299577238E-12   0.8338497831E+00   0.4935644981E+01   0.6681592903E-05   0.6681592907E-05   0.8129324625E-12  -0.1049138984E-11  -0.4574666061E-12
   0.1450000000E+01   0.8338497831E+00   0.8338497831E+00   0.4935644981E+01   0.6681592737E-05   0.6681592739E-05   0.8165383860E-12   0.1045615047E-11  -0.4573486433E-12
   0.0000000000E+00   0.8338497831E+00   0.8338497831E+00   0.4935644981E+01   0.6681589992E-05   0.6681589988E-05  -0.1063519360E-11  -0.1361948341E-11  -0.2226704215E-12
   0.2900000000E+01  -0.3460239650E-12  -0.4395686200E-12   0.4935644982E+01   0.6681595499E-05   0.6681595492E-05  -0.2832422766E-11  -0.3605439554E-11   0.7689778654E-12
   0.2900000000E+01   0.8338497831E+00   0.4408004921E-12   0.4935644981E+01   0.6681590177E-05   0.6681590174E-05  -0.2807493883E-11   0.3629415493E-11   0.7689056463E-12
   0.2900000000E+01  -0.2840548844E-14   0.8338497831E+00   0.4935644981E+01   0.6681590008E-05   0.6681590001E-05   0.2816364893E-11  -0.3636659022E-11   0.7706866552E-12
   0.2900000000E+01   0.8338497831E+00   0.8338497831E+00   0.4935644981E+01   0.6681595586E-05   0.6681595583E-05   0.2838913193E-11   0.3613423946E-11   0.7706144361E-12
     1     2     3     4     5     6     7     8
     2     9    10     3     6    11    12     7
 VARIABLES = X,Y,Z,S11,S22,S33,S12,S13,S23
 ZONE, T="  0.7000D+01" F=FEPOINT, I=   12 J=    2 ET=BRICK
   0.0000000000E+00   0.0000000000E+00   0.0000000000E+00   0.8381408623E+01   0.4484575678E-07   0.4484573570E-07  -0.2917850638E-11  -0.3006322282E-11  -0.3248557488E-12
   0.1525000000E+01  -0.2940614126E-12  -0.2971987575E-12   0.8381408623E+01   0.4484768096E-07   0.4484768023E-07  -0.8705351950E-12  -0.7627780140E-12   0.4611558245E-12
   0.1525000000E+01   0.8153719832E+00   0.2899998492E-12   0.8381408622E+01   0.4484742318E-07   0.4484742184E-07  -0.9328935831E-12   0.7003577574E-12   0.4612901409E-12
   0.0000000000E+00   0.8153719832E+00   0.0000000000E+00   0.8381408622E+01   0.4484976064E-07   0.4484974129E-07  -0.2971945532E-11   0.2954794569E-11  -0.3247751709E-12
   0.0000000000E+00  -0.4881014531E-12   0.8153719832E+00   0.8381408622E+01   0.4484958427E-07   0.4484956397E-07   0.2958805297E-11  -0.2945539269E-11  -0.3239781548E-12
   0.1525000000E+01  -0.1883392448E-12   0.8153719832E+00   0.8381408622E+01   0.4484777533E-07   0.4484777478E-07   0.9148220449E-12  -0.6973056457E-12   0.4607403461E-12
   0.1525000000E+01   0.8153719832E+00   0.8153719832E+00   0.8381408621E+01   0.4484761201E-07   0.4484761042E-07   0.8527365979E-12   0.7602222006E-12   0.4608746626E-12
   0.0000000000E+00   0.8153719832E+00   0.8153719832E+00   0.8381408621E+01   0.4484589849E-07   0.4484587957E-07   0.2905814503E-11   0.2995991511E-11  -0.3238975769E-12
   0.3050000000E+01  -0.2478026744E-12  -0.2206950260E-12   0.8381408622E+01   0.4484966853E-07   0.4484969217E-07   0.1011151756E-11   0.1308696519E-11   0.2964062706E-12
   0.3050000000E+01   0.8153719832E+00   0.2042675101E-12   0.8381408622E+01   0.4484591900E-07   0.4484594240E-07   0.9405298733E-12  -0.1383499288E-11   0.2965573719E-12
   0.3050000000E+01  -0.2273915571E-12   0.8153719832E+00   0.8381408622E+01   0.4484579369E-07   0.4484581755E-07  -0.9527826334E-12   0.1378858242E-11   0.2962747840E-12
   0.3050000000E+01   0.8153719832E+00   0.8153719832E+00   0.8381408621E+01   0.4484967110E-07   0.4484969353E-07  -0.1023962733E-11  -0.1304967343E-11   0.2964258854E-12
     1     2     3     4     5     6     7     8
     2     9    10     3     6    11    12     7
 VARIABLES = X,Y,Z,S11,S22,S33,S12,S13,S23
 ZONE, T="  0.8000D+01" F=FEPOINT, I=   12 J=    2 ET=BRICK
   0.0000000000E+00   0.0000000000E+00   0.0000000000E+00   0.1445722575E+02   0.8301519591E-06   0.8301520580E-06  -0.7361182361E-11  -0.6805155368E-11  -0.6046956789E-12
   0.1600000000E+01  -0.6208672655E-12  -0.5728984265E-12   0.1445722575E+02   0.8301629290E-06   0.8301629297E-06  -0.6890954953E-11  -0.6266484745E-11   0.1132835949E-11
   0.1600000000E+01   0.7999160852E+00   0.6066467664E-12   0.1445722575E+02   0.8301628700E-06   0.8301628713E-06  -0.6479567284E-11   0.6675764969E-11   0.1132635920E-11
   0.0000000000E+00   0.7999160852E+00   0.0000000000E+00   0.1445722575E+02   0.8301738483E-06   0.8301739465E-06  -0.6955465179E-11   0.7210508948E-11  -0.6047271390E-12
   0.0000000000E+00  -0.8308119188E-12   0.7999160852E+00   0.1445722575E+02   0.8301740182E-06   0.8301741181E-06   0.6953841590E-11  -0.7210276897E-11  -0.6045879102E-12
   0.1600000000E+01  -0.2439594208E-12   0.7999160852E+00   0.1445722575E+02   0.8301630356E-06   0.8301630370E-06   0.6469405102E-11  -0.6675877619E-11   0.1132994364E-11
   0.1600000000E+01   0.7999160852E+00   0.7999160852E+00   0.1445722575E+02   0.8301630179E-06   0.8301630190E-06   0.6879472341E-11   0.6264477488E-11   0.1132794335E-11
   0.0000000000E+00   0.7999160852E+00   0.7999160852E+00   0.1445722575E+02   0.8301518097E-06   0.8301519086E-06   0.7356043721E-11   0.6805765149E-11  -0.6046193703E-12
   0.3200000000E+01  -0.1280951101E-11  -0.1177706851E-11   0.1445722575E+02   0.8301740465E-06   0.8301739468E-06  -0.8069769518E-11  -0.7381262325E-11   0.2973770088E-11
   0.3200000000E+01   0.7999160852E+00   0.1245746670E-11   0.1445722575E+02   0.8301520942E-06   0.8301519954E-06  -0.7652711362E-11   0.7796117648E-11   0.2973547977E-11
   0.3200000000E+01   0.3813786333E-12   0.7999160852E+00   0.1445722575E+02   0.8301519475E-06   0.8301518484E-06   0.7648796921E-11  -0.7794926544E-11   0.2973682466E-11
   0.3200000000E+01   0.7999160852E+00   0.7999160852E+00   0.1445722575E+02   0.8301739057E-06   0.8301738058E-06   0.8066729268E-11   0.7378286484E-11   0.2973460355E-11
     1     2     3     4     5     6     7     8
     2     9    10     3     6    11    12     7
 VARIABLES = X,Y,Z,S11,S22,S33,S12,S13,S23
 ZONE, T="  0.9000D+01" F=FEPOINT, I=   12 J=    2 ET=BRICK
   0.0000000000E+00   0.0000000000E+00   0.0000000000E+00   0.2501111604E+02   0.8317590367E-05   0.8317588622E-05  -0.3709388766E-10  -0.4642086684E-10  -0.2490877158E-11
   0.1675000000E+01  -0.1844248319E-11  -0.2325814336E-11   0.2501111604E+02   0.8317620247E-05   0.8317620247E-05  -0.2750856979E-10  -0.3655781623E-10   0.4273821762E-11
   0.1675000000E+01   0.7882525246E+00   0.1789130606E-11   0.2501111603E+02   0.8317620085E-05   0.8317620085E-05  -0.3780261701E-10   0.2625935130E-10   0.4274166930E-11
   0.0000000000E+00   0.7882525246E+00   0.0000000000E+00   0.2501111603E+02   0.8317652037E-05   0.8317650298E-05  -0.4739437712E-10   0.3612940806E-10  -0.2490980273E-11
   0.0000000000E+00  -0.3070553085E-11   0.7882525246E+00   0.2501111603E+02   0.8317651903E-05   0.8317650163E-05   0.4736489989E-10  -0.3612408744E-10  -0.2490661567E-11
   0.1675000000E+01  -0.6907279315E-12   0.7882525246E+00   0.2501111603E+02   0.8317620429E-05   0.8317620430E-05   0.3777009981E-10  -0.2625931178E-10   0.4273722645E-11
   0.1675000000E+01   0.7882525246E+00   0.7882525246E+00   0.2501111603E+02   0.8317620320E-05   0.8317620319E-05   0.2747553400E-10   0.3655409455E-10   0.4274067813E-11
   0.0000000000E+00   0.7882525246E+00   0.7882525246E+00   0.2501111603E+02   0.8317590307E-05   0.8317588568E-05   0.3708430285E-10   0.4641636140E-10  -0.2490764682E-11
   0.3350000000E+01  -0.3329389061E-11  -0.4273595848E-11   0.2501111604E+02   0.8317650275E-05   0.8317652018E-05  -0.2676274354E-10  -0.3554285566E-10   0.9842370122E-11
   0.3350000000E+01   0.7882525246E+00   0.3199805267E-11   0.2501111603E+02   0.8317588888E-05   0.8317590629E-05  -0.3705034852E-10   0.2524218690E-10   0.9842261595E-11
   0.3350000000E+01   0.1330225246E-11   0.7882525246E+00   0.2501111603E+02   0.8317588705E-05   0.8317590448E-05   0.3704101799E-10  -0.2524262616E-10   0.9842218105E-11
   0.3350000000E+01   0.7882525246E+00   0.7882525246E+00   0.2501111603E+02   0.8317650315E-05   0.8317652059E-05   0.2673248340E-10   0.3554472005E-10   0.9842109579E-11
     1     2     3     4     5     6     7     8
     2     9    10     3     6    11    12     7
 VARIABLES = X,Y,Z,S11,S22,S33,S12,S13,S23
 ZONE, T="  0.1000D+02" F=FEPOINT, I=   12 J=    2 ET=BRICK
   0.0000000000E+00   0.0000000000E+00   0.0000000000E+00   0.4240039864E+02   0.5849812678E-04   0.5849811621E-04  -0.7519592576E-10  -0.1613881978E-09  -0.4670295210E-11
   0.1750000000E+01  -0.2386619243E-11  -0.5232764358E-11   0.4240039864E+02   0.5849815661E-04   0.5849815661E-04  -0.5294116611E-10  -0.1389201694E-09   0.9094197180E-11
   0.1750000000E+01   0.7812112154E+00   0.2308341425E-11   0.4240039863E+02   0.5849815709E-04   0.5849815709E-04  -0.1414231356E-09   0.5044049614E-10   0.9094217886E-11
   0.0000000000E+00   0.7812112154E+00   0.0000000000E+00   0.4240039863E+02   0.5849819668E-04   0.5849818612E-04  -0.1636721930E-09   0.7289527598E-10  -0.4670224770E-11
   0.0000000000E+00  -0.5170186404E-11   0.7812112154E+00   0.4240039863E+02   0.5849819810E-04   0.5849818754E-04   0.1636541902E-09  -0.7294993252E-10  -0.4672352849E-11
   0.1750000000E+01   0.1399051710E-12   0.7812112154E+00   0.4240039863E+02   0.5849815637E-04   0.5849815637E-04   0.1414109189E-09  -0.5045056779E-10   0.9094629239E-11
   0.1750000000E+01   0.7812112154E+00   0.7812112154E+00   0.4240039863E+02   0.5849815667E-04   0.5849815667E-04   0.5292737233E-10   0.1389372604E-09   0.9094649945E-11
   0.0000000000E+00   0.7812112154E+00   0.7812112154E+00   0.4240039863E+02   0.5849812567E-04   0.5849811510E-04   0.7517402174E-10   0.1614430575E-09  -0.4672282408E-11
   0.3500000000E+01  -0.4379340771E-11  -0.1006216771E-10   0.4240039864E+02   0.5849818703E-04   0.5849819760E-04  -0.5731709874E-10  -0.1430780660E-09   0.2141899859E-10
   0.3500000000E+01   0.7812112154E+00   0.4213808488E-11   0.4240039863E+02   0.5849811543E-04   0.5849812600E-04  -0.1458047705E-09   0.5460709200E-10   0.2141899156E-10
   0.3500000000E+01   0.5056335796E-11   0.7812112154E+00   0.4240039863E+02   0.5849811613E-04   0.5849812669E-04   0.1457845371E-09  -0.5457712798E-10   0.2141859534E-10
   0.3500000000E+01   0.7812112154E+00   0.7812112154E+00   0.4240039863E+02   0.5849818685E-04   0.5849819741E-04   0.5729761246E-10   0.1430528391E-09   0.2141858831E-10
     1     2     3     4     5     6     7     8
     2     9    10     3     6    11    12     7
 VARIABLES = X,Y,Z,S11,S22,S33,S12,S13,S23
 ZONE, T="  0.1100D+02" F=FEPOINT, I=   12 J=    2 ET=BRICK
   0.0000000000E+00   0.0000000000E+00   0.0000000000E+00   0.4136291422E+02   0.1037542954E+01   0.5852398868E-04   0.6550825822E+01   0.4068383442E-03   0.6443510354E-04
   0.1728455999E+01   0.2737514587E+00   0.9075316150E-05   0.4136277812E+02   0.1037614940E+01  -0.6154062060E-04   0.6551219886E+01   0.1347851036E-09  -0.1729750937E-08
   0.1606244835E+01   0.1045362378E+01   0.9075320880E-05   0.4136277812E+02   0.1037614940E+01  -0.6154062066E-04   0.6551219885E+01  -0.2234584157E-09   0.1723859399E-08
  -0.1222083586E+00   0.7715932090E+00   0.0000000000E+00   0.4136266272E+02   0.1037794449E+01   0.5852406694E-04   0.6551599843E+01   0.4068379071E-03   0.6443854467E-04
   0.8087953442E-12  -0.5106532830E-11   0.7812112154E+00   0.4136291421E+02   0.1037542954E+01   0.5852406784E-04   0.6550825821E+01  -0.4068384482E-03  -0.6443512947E-04
   0.1728455999E+01   0.2737514587E+00   0.7812021400E+00   0.4136277812E+02   0.1037614940E+01  -0.6154062083E-04   0.6551219886E+01  -0.3201999224E-09   0.1708537743E-08
   0.1606244835E+01   0.1045362378E+01   0.7812021401E+00   0.4136277812E+02   0.1037614940E+01  -0.6154062071E-04   0.6551219885E+01   0.4063423016E-09  -0.1686740341E-08
  -0.1222083586E+00   0.7715932090E+00   0.7812112154E+00   0.4136266271E+02   0.1037794449E+01   0.5852398784E-04   0.6551599842E+01  -0.4068378002E-03  -0.6443853719E-04
   0.3456909192E+01   0.5475206276E+00  -0.1006216771E-10   0.4136266272E+02   0.1037794449E+01   0.5852407790E-04   0.6551599843E+01  -0.4068381051E-03  -0.6443855906E-04
   0.3334700834E+01   0.1319113837E+01   0.4213808488E-11   0.4136291421E+02   0.1037542954E+01   0.5852399882E-04   0.6550825820E+01  -0.4068383262E-03  -0.6443508374E-04
   0.3456909192E+01   0.5475206276E+00   0.7812112154E+00   0.4136266271E+02   0.1037794449E+01   0.5852399896E-04   0.6551599842E+01   0.4068377772E-03   0.6443855050E-04
   0.3334700834E+01   0.1319113837E+01   0.7812112154E+00   0.4136291420E+02   0.1037542954E+01   0.5852407787E-04   0.6550825820E+01   0.4068386407E-03   0.6443517692E-04
     1     2     3     4     5     6     7     8
     2     9    10     3     6    11    12     7
 VARIABLES = X,Y,Z,S11,S22,S33,S12,S13,S23
 ZONE, T="  0.1200D+02" F=FEPOINT, I=   12 J=    2 ET=BRICK
   0.0000000000E+00   0.0000000000E+00   0.0000000000E+00   0.3835174867E+02   0.4048708496E+01   0.5852046995E-04   0.1246084144E+02   0.3643041762E-03   0.1183680225E-03
   0.1664351478E+01   0.5407718182E+00   0.8439510497E-05   0.3835151264E+02   0.4048878133E+01  -0.5923378376E-04   0.1246116140E+02   0.3308680473E-09  -0.1463165374E-08
   0.1422938788E+01   0.1283763679E+01   0.8439515207E-05   0.3835151264E+02   0.4048878133E+01  -0.5923378365E-04   0.1246116140E+02  -0.4174998063E-09   0.1443406628E-08
  -0.2414075417E+00   0.7429760170E+00   0.0000000000E+00   0.3835130422E+02   0.4049152941E+01   0.5852054841E-04   0.1246145317E+02   0.3643033511E-03   0.1183709041E-03
   0.1597675463E-11  -0.4917139470E-11   0.7812112154E+00   0.3835174867E+02   0.4048708495E+01   0.5852054915E-04   0.1246084144E+02  -0.3643042740E-03  -0.1183680641E-03
   0.1664351478E+01   0.5407718182E+00   0.7812027759E+00   0.3835151264E+02   0.4048878133E+01  -0.5923378370E-04   0.1246116140E+02  -0.5106640288E-09   0.1413136371E-08
   0.1422938788E+01   0.1283763679E+01   0.7812027759E+00   0.3835151264E+02   0.4048878132E+01  -0.5923378361E-04   0.1246116139E+02   0.5923621684E-09  -0.1378199809E-08
  -0.2414075417E+00   0.7429760170E+00   0.7812112154E+00   0.3835130421E+02   0.4049152941E+01   0.5852046932E-04   0.1246145317E+02  -0.3643032475E-03  -0.1183708803E-03
   0.3328697807E+01   0.1081559480E+01  -0.1006216771E-10   0.3835130422E+02   0.4049152942E+01   0.5852055931E-04   0.1246145317E+02  -0.3643035452E-03  -0.1183709496E-03
   0.3087290265E+01   0.1824535497E+01   0.4213808488E-11   0.3835174866E+02   0.4048708495E+01   0.5852048024E-04   0.1246084144E+02  -0.3643041606E-03  -0.1183679998E-03
   0.3328697807E+01   0.1081559480E+01   0.7812112154E+00   0.3835130422E+02   0.4049152941E+01   0.5852048003E-04   0.1246145317E+02   0.3643032218E-03   0.1183708895E-03
   0.3087290265E+01   0.1824535497E+01   0.7812112154E+00   0.3835174866E+02   0.4048708495E+01   0.5852055922E-04   0.1246084144E+02   0.3643044576E-03   0.1183681413E-03
     1     2     3     4     5     6     7     8
     2     9    10     3     6    11    12     7
 VARIABLES = X,Y,Z,S11,S22,S33,S12,S13,S23
 ZONE, T="  0.1300D+02" F=FEPOINT, I=   12 J=    2 ET=BRICK
   0.0000000000E+00   0.0000000000E+00   0.0000000000E+00   0.3366168131E+02   0.8738775855E+01   0.5852040581E-04   0.1715107596E+02   0.3408123373E-03   0.1736508780E-03
   0.1559265193E+01   0.7944759635E+00   0.8427398717E-05   0.3366135678E+02   0.8739033957E+01  -0.5918984676E-04   0.1715131727E+02   0.5537150836E-09  -0.1389535484E-08
   0.1204595171E+01   0.1490555075E+01   0.8427403430E-05   0.3366135677E+02   0.8739033956E+01  -0.5918984636E-04   0.1715131727E+02  -0.6362009423E-09   0.1356475319E-08
  -0.3546624701E+00   0.6960642897E+00   0.0000000000E+00   0.3366107047E+02   0.8739386692E+01   0.5852048392E-04   0.1715151976E+02   0.3408110757E-03   0.1736535874E-03
   0.2347215509E-11  -0.4606669817E-11   0.7812112154E+00   0.3366168131E+02   0.8738775854E+01   0.5852048454E-04   0.1715107596E+02  -0.3408124275E-03  -0.1736509344E-03
   0.1559265193E+01   0.7944759635E+00   0.7812027880E+00   0.3366135677E+02   0.8739033956E+01  -0.5918984650E-04   0.1715131727E+02  -0.7234820595E-09   0.1312004102E-08
   0.1204595171E+01   0.1490555075E+01   0.7812027880E+00   0.3366135677E+02   0.8739033955E+01  -0.5918984619E-04   0.1715131727E+02   0.7986980210E-09  -0.1264709208E-08
  -0.3546624701E+00   0.6960642897E+00   0.7812112154E+00   0.3366107046E+02   0.8739386691E+01   0.5852040468E-04   0.1715151976E+02  -0.3408109770E-03  -0.1736535476E-03
   0.3118522835E+01   0.1588966749E+01  -0.1006216771E-10   0.3366107047E+02   0.8739386693E+01   0.5852049493E-04   0.1715151976E+02  -0.3408112602E-03  -0.1736536626E-03
   0.2763860365E+01   0.2285031039E+01   0.4213808488E-11   0.3366168131E+02   0.8738775853E+01   0.5852041577E-04   0.1715107596E+02  -0.3408123257E-03  -0.1736508532E-03
   0.3118522835E+01   0.1588966749E+01   0.7812112154E+00   0.3366107047E+02   0.8739386692E+01   0.5852041562E-04   0.1715151976E+02   0.3408109503E-03   0.1736535528E-03
   0.2763860365E+01   0.2285031039E+01   0.7812112154E+00   0.3366168130E+02   0.8738775853E+01   0.5852049465E-04   0.1715107596E+02   0.3408125967E-03   0.1736510394E-03
     1     2     3     4     5     6     7     8
     2     9    10     3     6    11    12     7
 VARIABLES = X,Y,Z,S11,S22,S33,S12,S13,S23
 ZONE, T="  0.1400D+02" F=FEPOINT, I=   12 J=    2 ET=BRICK
   0.0000000000E+00   0.0000000000E+00   0.0000000000E+00   0.2775180049E+02   0.1464865668E+02   0.5852040955E-04   0.2016244321E+02   0.3094777483E-03   0.2248468935E-03
   0.1415784630E+01   0.1028617462E+01   0.8428116550E-05   0.2775141561E+02   0.1464897512E+02  -0.5919245068E-04   0.2016258270E+02   0.7644228362E-09  -0.1286012860E-08
   0.9565904195E+00   0.1660644071E+01   0.8428121263E-05   0.2775141561E+02   0.1464897512E+02  -0.5919245025E-04   0.2016258270E+02  -0.8407176685E-09   0.1240458300E-08
  -0.4591844313E+00   0.6320131494E+00   0.0000000000E+00   0.2775108234E+02   0.1464937482E+02   0.5852048769E-04   0.2016267655E+02   0.3094760780E-03   0.2248493726E-03
   0.3038959320E-11  -0.4182768665E-11   0.7812112154E+00   0.2775180049E+02   0.1464865668E+02   0.5852048845E-04   0.2016244321E+02  -0.3094778286E-03  -0.2248469634E-03
   0.1415784630E+01   0.1028617462E+01   0.7812027872E+00   0.2775141561E+02   0.1464897512E+02  -0.5919245058E-04   0.2016258270E+02  -0.9199651093E-09   0.1182882615E-08
   0.9565904195E+00   0.1660644071E+01   0.7812027873E+00   0.2775141561E+02   0.1464897512E+02  -0.5919245020E-04   0.2016258270E+02   0.9868599647E-09  -0.1124402117E-08
  -0.4591844313E+00   0.6320131494E+00   0.7812112154E+00   0.2775108234E+02   0.1464937482E+02   0.5852040856E-04   0.2016267655E+02  -0.3094759867E-03  -0.2248493179E-03
   0.2831559480E+01   0.2057248383E+01  -0.1006216771E-10   0.2775108234E+02   0.1464937482E+02   0.5852049896E-04   0.2016267655E+02  -0.3094762485E-03  -0.2248494758E-03
   0.2372375049E+01   0.2689261532E+01   0.4213808488E-11   0.2775180048E+02   0.1464865667E+02   0.5852041959E-04   0.2016244321E+02  -0.3094777407E-03  -0.2248468672E-03
   0.2831559480E+01   0.2057248383E+01   0.7812112154E+00   0.2775108234E+02   0.1464937482E+02   0.5852041952E-04   0.2016267655E+02   0.3094759596E-03   0.2248493188E-03
   0.2372375049E+01   0.2689261532E+01   0.7812112154E+00   0.2775180048E+02   0.1464865667E+02   0.5852049851E-04   0.2016244321E+02   0.3094779792E-03   0.2248470935E-03
     1     2     3     4     5     6     7     8
     2     9    10     3     6    11    12     7
 VARIABLES = X,Y,Z,S11,S22,S33,S12,S13,S23
 ZONE, T="  0.1500D+02" F=FEPOINT, I=   12 J=    2 ET=BRICK
   0.0000000000E+00   0.0000000000E+00   0.0000000000E+00   0.2120060613E+02   0.2119985103E+02   0.5852040951E-04   0.2120017006E+02   0.2704942722E-03   0.2704921531E-03
   0.1237442749E+01   0.1237430985E+01   0.8428132502E-05   0.2120019537E+02   0.2120019537E+02  -0.5919250845E-04   0.2120019405E+02   0.9561905349E-09  -0.1150603609E-08
   0.6850312372E+00   0.1789842497E+01   0.8428137216E-05   0.2120019537E+02   0.2120019537E+02  -0.5919250810E-04   0.2120019405E+02  -0.1024420378E-08   0.1093674583E-08
  -0.5523997479E+00   0.5523997479E+00   0.0000000000E+00   0.2119985103E+02   0.2120060613E+02   0.5852048773E-04   0.2120017006E+02   0.2704922346E-03   0.2704943404E-03
   0.3655873866E-11  -0.3655873866E-11   0.7812112154E+00   0.2120060613E+02   0.2119985103E+02   0.5852048869E-04   0.2120017006E+02  -0.2704943405E-03  -0.2704922347E-03
   0.1237442749E+01   0.1237430985E+01   0.7812027872E+00   0.2120019537E+02   0.2120019537E+02  -0.5919250839E-04   0.2120019405E+02  -0.1093688981E-08   0.1024406865E-08
   0.6850312372E+00   0.1789842497E+01   0.7812027872E+00   0.2120019536E+02   0.2120019536E+02  -0.5919250808E-04   0.2120019405E+02   0.1150610728E-08  -0.9561818702E-09
  -0.5523997479E+00   0.5523997479E+00   0.7812112154E+00   0.2119985103E+02   0.2120060613E+02   0.5852040877E-04   0.2120017006E+02  -0.2704921530E-03  -0.2704942721E-03
   0.2474873734E+01   0.2474873734E+01  -0.1006216771E-10   0.2119985103E+02   0.2120060613E+02   0.5852049886E-04   0.2120017006E+02  -0.2704923868E-03  -0.2704944690E-03
   0.1922473986E+01   0.3027273482E+01   0.4213808488E-11   0.2120060613E+02   0.2119985103E+02   0.5852041967E-04   0.2120017006E+02  -0.2704942687E-03  -0.2704921260E-03
   0.2474873734E+01   0.2474873734E+01   0.7812112154E+00   0.2119985103E+02   0.2120060613E+02   0.5852041973E-04   0.2120017006E+02   0.2704921260E-03   0.2704942688E-03
   0.1922473986E+01   0.3027273482E+01   0.7812112154E+00   0.2120060613E+02   0.2119985102E+02   0.5852049869E-04   0.2120017006E+02   0.2704944689E-03   0.2704923868E-03
     1     2     3     4     5     6     7     8
     2     9    10     3     6    11    12     7
 VARIABLES = X,Y,Z,S11,S22,S33,S12,S13,S23
 ZONE, T="  0.1600D+02" F=FEPOINT, I=   12 J=    2 ET=BRICK
   0.0000000000E+00   0.0000000000E+00   0.0000000000E+00   0.1464937482E+02   0.2775108234E+02   0.5852040963E-04   0.2016267655E+02   0.2248497221E-03   0.3094765431E-03
   0.1028630921E+01   0.1415774851E+01   0.8428131697E-05   0.1464897512E+02   0.2775141561E+02  -0.5919250551E-04   0.2016258270E+02   0.1124414191E-08  -0.9868528367E-09
   0.3966043124E+00   0.1874969061E+01   0.8428136411E-05   0.1464897512E+02   0.2775141561E+02  -0.5919250514E-04   0.2016258270E+02  -0.1182897237E-08   0.9199532023E-09
  -0.6320131494E+00   0.4591844313E+00   0.0000000000E+00   0.1464865668E+02   0.2775180049E+02   0.5852048787E-04   0.2016244321E+02   0.2248473674E-03   0.3094783847E-03
   0.4182768665E-11  -0.3038959320E-11   0.7812112154E+00   0.1464937482E+02   0.2775108234E+02   0.5852048880E-04   0.2016267655E+02  -0.2248497768E-03  -0.3094766343E-03
   0.1028630921E+01   0.1415774851E+01   0.7812027872E+00   0.1464897512E+02   0.2775141561E+02  -0.5919250561E-04   0.2016258270E+02  -0.1240473243E-08   0.8407081236E-09
   0.3966043124E+00   0.1874969061E+01   0.7812027872E+00   0.1464897512E+02   0.2775141561E+02  -0.5919250526E-04   0.2016258270E+02   0.1286023125E-08  -0.7644167553E-09
  -0.6320131494E+00   0.4591844313E+00   0.7812112154E+00   0.1464865667E+02   0.2775180048E+02   0.5852040863E-04   0.2016244321E+02  -0.2248472975E-03  -0.3094783044E-03
   0.2057248383E+01   0.2831559480E+01  -0.1006216771E-10   0.1464865668E+02   0.2775180049E+02   0.5852049891E-04   0.2016244321E+02  -0.2248474977E-03  -0.3094785355E-03
   0.1425235234E+01   0.3290743912E+01   0.4213808488E-11   0.1464937482E+02   0.2775108234E+02   0.5852041941E-04   0.2016267655E+02  -0.2248497229E-03  -0.3094765157E-03
   0.2057248383E+01   0.2831559480E+01   0.7812112154E+00   0.1464865667E+02   0.2775180048E+02   0.5852041975E-04   0.2016244321E+02   0.2248472714E-03   0.3094782969E-03
   0.1425235234E+01   0.3290743912E+01   0.7812112154E+00   0.1464937482E+02   0.2775108233E+02   0.5852049860E-04   0.2016267655E+02   0.2248498798E-03   0.3094768046E-03
     1     2     3     4     5     6     7     8
     2     9    10     3     6    11    12     7
 VARIABLES = X,Y,Z,S11,S22,S33,S12,S13,S23
 ZONE, T="  0.1700D+02" F=FEPOINT, I=   12 J=    2 ET=BRICK
   0.0000000000E+00   0.0000000000E+00   0.0000000000E+00   0.8739386720E+01   0.3366107045E+02   0.5852040959E-04   0.1715151978E+02   0.1736686510E-03   0.3408406184E-03
   0.7944907862E+00   0.1559257641E+01   0.8428131677E-05   0.8739033959E+01   0.3366135678E+02  -0.5919250545E-04   0.1715131727E+02   0.1264948932E-08  -0.7988058426E-09
   0.9841167323E-01   0.1913927664E+01   0.8428136391E-05   0.8739033958E+01   0.3366135677E+02  -0.5919250518E-04   0.1715131727E+02  -0.1312247758E-08   0.7235784985E-09
  -0.6960642897E+00   0.3546624701E+00   0.0000000000E+00   0.8738775827E+01   0.3366168133E+02   0.5852048781E-04   0.1715107594E+02   0.1736660372E-03   0.3408420691E-03
   0.4606669817E-11  -0.2347215509E-11   0.7812112154E+00   0.8739386719E+01   0.3366107044E+02   0.5852048867E-04   0.1715151978E+02  -0.1736686908E-03  -0.3408407171E-03
   0.7944907862E+00   0.1559257641E+01   0.7812027872E+00   0.8739033958E+01   0.3366135677E+02  -0.5919250544E-04   0.1715131727E+02  -0.1356716226E-08   0.6363051617E-09
   0.9841167323E-01   0.1913927664E+01   0.7812027872E+00   0.8739033957E+01   0.3366135677E+02  -0.5919250518E-04   0.1715131727E+02   0.1389769563E-08  -0.5538298236E-09
  -0.6960642897E+00   0.3546624701E+00   0.7812112154E+00   0.8738775826E+01   0.3366168133E+02   0.5852040868E-04   0.1715107594E+02  -0.1736659808E-03  -0.3408419788E-03
   0.1588966749E+01   0.3118522835E+01  -0.1006216771E-10   0.8738775828E+01   0.3366168134E+02   0.5852049879E-04   0.1715107594E+02  -0.1736661423E-03  -0.3408422383E-03
   0.8929024594E+00   0.3473185305E+01   0.4213808488E-11   0.8739386719E+01   0.3366107044E+02   0.5852041951E-04   0.1715151978E+02  -0.1736686561E-03  -0.3408405916E-03
   0.1588966749E+01   0.3118522835E+01   0.7812112154E+00   0.8738775826E+01   0.3366168133E+02   0.5852041970E-04   0.1715107594E+02   0.1736659561E-03   0.3408419673E-03
   0.8929024594E+00   0.3473185305E+01   0.7812112154E+00   0.8739386718E+01   0.3366107044E+02   0.5852049858E-04   0.1715151978E+02   0.1736687659E-03   0.3408409014E-03
     1     2     3     4     5     6     7     8
     2     9    10     3     6    11    12     7
 VARIABLES = X,Y,Z,S11,S22,S33,S12,S13,S23
 ZONE, T="  0.1800D+02" F=FEPOINT, I=   12 J=    2 ET=BRICK
   0.0000000000E+00   0.0000000000E+00   0.0000000000E+00   0.4049152638E+01   0.3835130453E+02   0.5852040970E-04   0.1246145275E+02   0.1182112819E-03   0.3638120674E-03
   0.5407876513E+00   0.1664346333E+01   0.8428131678E-05   0.4048878096E+01   0.3835151264E+02  -0.5919250539E-04   0.1246116141E+02   0.1374333485E-08  -0.5910980372E-09
  -0.2022041880E+00   0.1905759016E+01   0.8428136391E-05   0.4048878096E+01   0.3835151264E+02  -0.5919250533E-04   0.1246116141E+02  -0.1409283246E-08   0.5093927248E-09
  -0.7429760170E+00   0.2414075417E+00   0.0000000000E+00   0.4048708799E+01   0.3835174836E+02   0.5852048785E-04   0.1246084186E+02   0.1182084734E-03   0.3638130913E-03
   0.4917139470E-11  -0.1597675463E-11   0.7812112154E+00   0.4049152638E+01   0.3835130452E+02   0.5852048861E-04   0.1246145275E+02  -0.1182113058E-03  -0.3638121711E-03
   0.5407876513E+00   0.1664346333E+01   0.7812027872E+00   0.4048878096E+01   0.3835151264E+02  -0.5919250543E-04   0.1246116141E+02  -0.1439555610E-08   0.4162254697E-09
  -0.2022041880E+00   0.1905759016E+01   0.7812027872E+00   0.4048878095E+01   0.3835151263E+02  -0.5919250531E-04   0.1246116141E+02   0.1459298210E-08  -0.3296002858E-09
  -0.7429760170E+00   0.2414075417E+00   0.7812112154E+00   0.4048708798E+01   0.3835174836E+02   0.5852040885E-04   0.1246084186E+02  -0.1182084318E-03  -0.3638129933E-03
   0.1081559480E+01   0.3328697807E+01  -0.1006216771E-10   0.4048708799E+01   0.3835174836E+02   0.5852049886E-04   0.1246084186E+02  -0.1182085507E-03  -0.3638132749E-03
   0.3385834633E+00   0.3570105349E+01   0.4213808488E-11   0.4049152638E+01   0.3835130452E+02   0.5852041978E-04   0.1246145275E+02  -0.1182112912E-03  -0.3638120416E-03
   0.1081559480E+01   0.3328697807E+01   0.7812112154E+00   0.4048708798E+01   0.3835174836E+02   0.5852041961E-04   0.1246084186E+02   0.1182084092E-03   0.3638129781E-03
   0.3385834633E+00   0.3570105349E+01   0.7812112154E+00   0.4049152637E+01   0.3835130452E+02   0.5852049862E-04   0.1246145275E+02   0.1182113511E-03   0.3638123649E-03
     1     2     3     4     5     6     7     8
     2     9    10     3     6    11    12     7
 VARIABLES = X,Y,Z,S11,S22,S33,S12,S13,S23
 ZONE, T="  0.1900D+02" F=FEPOINT, I=   12 J=    2 ET=BRICK
   0.0000000000E+00   0.0000000000E+00   0.0000000000E+00   0.1037785368E+01   0.4136267180E+02   0.5852040958E-04   0.6551571906E+01   0.5984315874E-04   0.3778252558E-03
   0.2737685297E+00   0.1728453295E+01   0.8428131678E-05   0.1037612669E+01   0.4136277807E+02  -0.5919250556E-04   0.6551220246E+01   0.1449883319E-08  -0.3688135735E-09
  -0.4978411110E+00   0.1850664256E+01   0.8428136391E-05   0.1037612668E+01   0.4136277806E+02  -0.5919250522E-04   0.6551220245E+01  -0.1471620136E-08   0.2826546119E-09
  -0.7715932090E+00   0.1222083586E+00   0.0000000000E+00   0.1037552028E+01   0.4136290513E+02   0.5852048781E-04   0.6550853759E+01   0.5984022465E-04   0.3778258277E-03
   0.5106532830E-11  -0.8087953442E-12   0.7812112154E+00   0.1037785368E+01   0.4136267179E+02   0.5852048892E-04   0.6551571906E+01  -0.5984316610E-04  -0.3778253619E-03
   0.2737685297E+00   0.1728453295E+01   0.7812027872E+00   0.1037612668E+01   0.4136277806E+02  -0.5919250547E-04   0.6551220245E+01  -0.1486942183E-08   0.1859184742E-09
  -0.4978411110E+00   0.1850664256E+01   0.7812027872E+00   0.1037612668E+01   0.4136277806E+02  -0.5919250528E-04   0.6551220245E+01   0.1492892013E-08  -0.9726310100E-10
  -0.7715932090E+00   0.1222083586E+00   0.7812112154E+00   0.1037552028E+01   0.4136290513E+02   0.5852040884E-04   0.6550853758E+01  -0.5984019883E-04  -0.3778257244E-03
   0.5475206276E+00   0.3456909192E+01  -0.1006216771E-10   0.1037552028E+01   0.4136290514E+02   0.5852049898E-04   0.6550853759E+01  -0.5984027225E-04  -0.3778260212E-03
  -0.2240725813E+00   0.3579117551E+01   0.4213808488E-11   0.1037785368E+01   0.4136267179E+02   0.5852041980E-04   0.6551571905E+01  -0.5984317190E-04  -0.3778252318E-03
   0.5475206276E+00   0.3456909192E+01   0.7812112154E+00   0.1037552028E+01   0.4136290513E+02   0.5852041958E-04   0.6550853758E+01   0.5984017894E-04   0.3778257059E-03
  -0.2240725813E+00   0.3579117551E+01   0.7812112154E+00   0.1037785368E+01   0.4136267179E+02   0.5852049844E-04   0.6551571904E+01   0.5984318058E-04   0.3778255604E-03
     1     2     3     4     5     6     7     8
     2     9    10     3     6    11    12     7
 VARIABLES = X,Y,Z,S11,S22,S33,S12,S13,S23
 ZONE, T="  0.2000D+02" F=FEPOINT, I=   12 J=    2 ET=BRICK
   0.0000000000E+00   0.0000000000E+00   0.0000000000E+00   0.5852040201E-04   0.4240039865E+02   0.5852040968E-04   0.3775521507E-03   0.1498390405E-08   0.3825351324E-03
   0.8318292265E-05   0.1750000000E+01   0.8428131678E-05   0.1316448479E-05   0.4240038942E+02  -0.5919250538E-04   0.5147428396E-10   0.1489727780E-08  -0.1374666602E-09
  -0.7812195337E+00   0.1750000000E+01   0.8428136391E-05   0.1316448578E-05   0.4240038942E+02  -0.5919250527E-04   0.1399705489E-09  -0.1497719088E-08   0.4896538091E-10
  -0.7812112154E+00   0.1110223025E-15   0.0000000000E+00   0.5852048008E-04   0.4240039864E+02   0.5852048776E-04  -0.3775520397E-03  -0.1489049908E-08   0.3825352383E-03
   0.5170186404E-11  -0.5048709793E-27   0.7812112154E+00   0.5852048099E-04   0.4240039864E+02   0.5852048867E-04   0.3775520397E-03  -0.1489047768E-08  -0.3825352384E-03
   0.8318292555E-05   0.1750000000E+01   0.7812027872E+00   0.1316448456E-05   0.4240038942E+02  -0.5919250540E-04  -0.1399554969E-09  -0.1497719874E-08  -0.4898498923E-10
  -0.7812195337E+00   0.1750000000E+01   0.7812027872E+00   0.1316448488E-05   0.4240038941E+02  -0.5919250536E-04  -0.5144139828E-10   0.1489727086E-08   0.1374769277E-09
  -0.7812112154E+00   0.1110223025E-15   0.7812112154E+00   0.5852040120E-04   0.4240039864E+02   0.5852040887E-04  -0.3775521507E-03   0.1498392336E-08  -0.3825351323E-03
   0.4379385743E-11   0.3500000000E+01  -0.1006216771E-10   0.5852047000E-04   0.4240039864E+02   0.5852049881E-04  -0.3775520182E-03   0.1472302741E-08  -0.3825354369E-03
  -0.7812112154E+00   0.3500000000E+01   0.4213808488E-11   0.5852039089E-04   0.4240039864E+02   0.5852041969E-04   0.3775523492E-03  -0.1515140648E-08  -0.3825351108E-03
  -0.5056399743E-11   0.3500000000E+01   0.7812112154E+00   0.5852039069E-04   0.4240039864E+02   0.5852041950E-04  -0.3775523491E-03  -0.1515140253E-08   0.3825351109E-03
  -0.7812112154E+00   0.3500000000E+01   0.7812112154E+00   0.5852046964E-04   0.4240039863E+02   0.5852049845E-04   0.3775520182E-03   0.1472303034E-08   0.3825354367E-03
     1     2     3     4     5     6     7     8
     2     9    10     3     6    11    12     7
