VARIABLES = TIME,e11,e22,e33,e12,e13,e23,s11,s22,s33,s12,s13,s23
  0.50000D-04  0.10000D-05  0.00000D+00  0.00000D+00 -0.19844D-22 -0.16536D-22  0.00000D+00  0.00000D+00  0.00000D+00  0.00000D+00  0.00000D+00  0.00000D+00  0.00000D+00
  0.25000D-02  0.50000D-04 -0.14983D-04 -0.14983D-04  0.87364D-10  0.11200D-09 -0.16727D-11  0.34314D+01  0.23618D-02  0.23620D-02  0.43317D-06  0.69093D-06 -0.32183D-06
  0.50000D-02  0.10000D-03 -0.29998D-04 -0.29998D-04  0.62220D-10  0.75524D-10  0.70820D-11  0.69298D+01 -0.12569D-05 -0.12611D-05 -0.17855D-06 -0.21614D-06  0.16547D-07
  0.75000D-02  0.15000D-03 -0.44996D-04 -0.44996D-04  0.57460D-10  0.67599D-10  0.82655D-11  0.10429D+02 -0.18830D-05 -0.18980D-05 -0.22581D-06 -0.31626D-06  0.15384D-07
  0.10000D-01  0.20000D-03 -0.59992D-04 -0.59992D-04  0.60789D-10  0.71825D-10  0.73709D-11  0.13929D+02 -0.17125D-06 -0.16665D-06 -0.10016D-06 -0.14894D-06 -0.55285D-08
  0.12500D-01  0.25000D-03 -0.74988D-04 -0.74988D-04  0.64154D-10  0.76578D-10  0.75585D-11  0.17428D+02 -0.19381D-06 -0.19422D-06 -0.69536D-08 -0.15334D-07  0.64438D-09
  0.15000D-01  0.30000D-03 -0.89982D-04 -0.89982D-04  0.65475D-10  0.78565D-10  0.75610D-11  0.20927D+02 -0.19477D-06 -0.19494D-06  0.21105D-07  0.28163D-07  0.15681D-09
  0.17500D-01  0.35000D-03 -0.10498D-03 -0.10498D-03  0.65467D-10  0.78633D-10  0.75499D-11  0.24426D+02 -0.19483D-06 -0.19476D-06  0.15398D-07  0.22095D-07 -0.85915D-10
  0.20000D-01  0.40000D-03 -0.11997D-03 -0.11997D-03  0.65124D-10  0.78168D-10  0.75544D-11  0.27925D+02 -0.19476D-06 -0.19477D-06  0.45439D-08  0.70619D-08  0.15397D-10
  0.22500D-01  0.45000D-03 -0.13496D-03 -0.13496D-03  0.64904D-10  0.77850D-10  0.75554D-11  0.31423D+02 -0.19474D-06 -0.19474D-06 -0.10030D-08 -0.10895D-08 -0.74976D-12
  0.25000D-01  0.50000D-03 -0.14995D-03 -0.14995D-03  0.64849D-10  0.77763D-10  0.75567D-11  0.34921D+02 -0.19471D-06 -0.19471D-06 -0.18084D-08 -0.25076D-08  0.13067D-11
  0.27500D-01  0.55000D-03 -0.16494D-03 -0.16494D-03  0.64869D-10  0.77787D-10  0.75581D-11  0.38420D+02 -0.19468D-06 -0.19468D-06 -0.91035D-09 -0.13394D-08  0.10585D-11
  0.30000D-01  0.60000D-03 -0.17993D-03 -0.17993D-03  0.64896D-10  0.77824D-10  0.75596D-11  0.41918D+02 -0.19465D-06 -0.19465D-06 -0.12510D-09 -0.22316D-09  0.14060D-12
  0.32500D-01  0.65000D-03 -0.19492D-03 -0.19492D-03  0.64907D-10  0.77841D-10  0.75613D-11  0.45415D+02 -0.19462D-06 -0.19462D-06  0.15197D-09  0.19837D-09  0.97374D-12
  0.35000D-01  0.70000D-03 -0.20990D-03 -0.20990D-03  0.64907D-10  0.77842D-10  0.75631D-11  0.48913D+02 -0.19459D-06 -0.19459D-06  0.12999D-09  0.18497D-09 -0.54519D-12
  0.37500D-01  0.75000D-03 -0.22489D-03 -0.22489D-03  0.64904D-10  0.77838D-10  0.75652D-11  0.52410D+02 -0.19456D-06 -0.19456D-06  0.44987D-10  0.68590D-10 -0.33679D-12
  0.40000D-01  0.80000D-03 -0.23988D-03 -0.23988D-03  0.64901D-10  0.77834D-10  0.75673D-11  0.55908D+02 -0.19453D-06 -0.19453D-06 -0.42129D-11 -0.30460D-11 -0.26317D-12
  0.42500D-01  0.85000D-03 -0.25486D-03 -0.25486D-03  0.64899D-10  0.77832D-10  0.75700D-11  0.59405D+02 -0.19450D-06 -0.19450D-06 -0.14216D-10 -0.19497D-10  0.15981D-11
  0.45000D-01  0.90000D-03 -0.26984D-03 -0.26984D-03  0.64898D-10  0.77831D-10  0.75718D-11  0.62902D+02 -0.19448D-06 -0.19447D-06 -0.80885D-11 -0.11792D-10 -0.39699D-11
  0.47500D-01  0.95000D-03 -0.28482D-03 -0.28482D-03  0.64898D-10  0.77830D-10  0.75740D-11  0.66399D+02 -0.19445D-06 -0.19445D-06 -0.15776D-11 -0.26194D-11 -0.20405D-11
  0.50000D-01  0.10000D-02 -0.29981D-03 -0.29981D-03  0.64897D-10  0.77829D-10  0.75767D-11  0.69895D+02 -0.19442D-06 -0.19442D-06  0.10490D-11  0.13256D-11  0.44893D-12
  0.52500D-01  0.10500D-02 -0.31479D-03 -0.31479D-03  0.64896D-10  0.77828D-10  0.75792D-11  0.73392D+02 -0.19439D-06 -0.19439D-06  0.10775D-11  0.15221D-11 -0.32834D-11
  0.55000D-01  0.11000D-02 -0.32976D-03 -0.32976D-03  0.64895D-10  0.77826D-10  0.75819D-11  0.76888D+02 -0.19436D-06 -0.19436D-06  0.43115D-12  0.64149D-12 -0.25114D-12
  0.57500D-01  0.11500D-02 -0.34474D-03 -0.34474D-03  0.64894D-10  0.77825D-10  0.75845D-11  0.80384D+02 -0.19433D-06 -0.19433D-06  0.72156D-15  0.23897D-13 -0.71626D-12
  0.60000D-01  0.12000D-02 -0.35972D-03 -0.35972D-03  0.64893D-10  0.77824D-10  0.75872D-11  0.83880D+02 -0.19430D-06 -0.19430D-06 -0.10783D-12 -0.14616D-12  0.14042D-11
  0.62500D-01  0.12500D-02 -0.37470D-03 -0.37470D-03  0.64892D-10  0.77823D-10  0.75900D-11  0.87376D+02 -0.19427D-06 -0.19427D-06 -0.71982D-13 -0.10126D-12  0.11540D-11
  0.65000D-01  0.13000D-02 -0.38967D-03 -0.38967D-03  0.64891D-10  0.77822D-10  0.75931D-11  0.90871D+02 -0.19424D-06 -0.19424D-06 -0.18283D-13 -0.25662D-13  0.19205D-11
  0.67500D-01  0.13500D-02 -0.40465D-03 -0.40465D-03  0.64890D-10  0.77821D-10  0.75956D-11  0.94366D+02 -0.19421D-06 -0.19421D-06  0.43886D-14  0.83633D-14 -0.38653D-11
  0.70000D-01  0.14000D-02 -0.41962D-03 -0.41962D-03  0.64889D-10  0.77819D-10  0.75985D-11  0.97862D+02 -0.19418D-06 -0.19418D-06  0.63631D-14  0.65600D-14  0.14840D-11
  0.72500D-01  0.14500D-02 -0.43459D-03 -0.43459D-03  0.64888D-10  0.77818D-10  0.76014D-11  0.10136D+03 -0.19416D-06 -0.19415D-06  0.17659D-14  0.14238D-14 -0.18085D-11
  0.75000D-01  0.15000D-02 -0.44956D-03 -0.44956D-03  0.64887D-10  0.77817D-10  0.76045D-11  0.10485D+03 -0.19413D-06 -0.19412D-06  0.10082D-15  0.16020D-14  0.32175D-11
  0.77500D-01  0.15500D-02 -0.46453D-03 -0.46453D-03  0.64886D-10  0.77816D-10  0.76074D-11  0.10835D+03 -0.19410D-06 -0.19410D-06  0.34537D-15 -0.31321D-15 -0.39706D-11
  0.80000D-01  0.16000D-02 -0.47950D-03 -0.47950D-03  0.64885D-10  0.77815D-10  0.76107D-11  0.11184D+03 -0.19407D-06 -0.19407D-06  0.88817D-15  0.28902D-14 -0.25176D-11
  0.82500D-01  0.16500D-02 -0.49447D-03 -0.49447D-03  0.64884D-10  0.77814D-10  0.76139D-11  0.11534D+03 -0.19404D-06 -0.19404D-06 -0.81751D-15  0.19498D-15  0.17771D-11
  0.85000D-01  0.17000D-02 -0.50944D-03 -0.50944D-03  0.64883D-10  0.77813D-10  0.76171D-11  0.11883D+03 -0.19401D-06 -0.19400D-06 -0.12259D-14  0.62928D-15  0.11654D-12
  0.87500D-01  0.17500D-02 -0.52440D-03 -0.52440D-03  0.64882D-10  0.77811D-10  0.76205D-11  0.12232D+03 -0.19396D-06 -0.19396D-06 -0.29285D-14 -0.24865D-14 -0.29770D-11
  0.90000D-01  0.18000D-02 -0.53937D-03 -0.53937D-03  0.64881D-10  0.77810D-10  0.76244D-11  0.12582D+03 -0.19386D-06 -0.19386D-06 -0.86068D-14 -0.51676D-14  0.14426D-11
  0.92500D-01  0.18500D-02 -0.55433D-03 -0.55433D-03  0.64880D-10  0.77809D-10  0.76276D-11  0.12931D+03 -0.19350D-06 -0.19349D-06 -0.19455D-14  0.20121D-14 -0.10457D-11
  0.95000D-01  0.19000D-02 -0.56930D-03 -0.56930D-03  0.64879D-10  0.77808D-10  0.76314D-11  0.13280D+03 -0.19185D-06 -0.19184D-06 -0.25063D-14  0.48121D-14  0.14560D-11
  0.97500D-01  0.19500D-02 -0.58426D-03 -0.58426D-03  0.64878D-10  0.77807D-10  0.76354D-11  0.13630D+03 -0.18407D-06 -0.18407D-06 -0.18188D-14 -0.40530D-14 -0.43142D-12
  0.10000D+00  0.20000D-02 -0.59922D-03 -0.59922D-03  0.64877D-10  0.77806D-10  0.76392D-11  0.13979D+03 -0.14693D-06 -0.14693D-06  0.86681D-15 -0.47813D-14 -0.19389D-11
  0.10250D+00  0.20500D-02 -0.61418D-03 -0.61418D-03  0.64876D-10  0.77804D-10  0.76430D-11  0.14328D+03  0.30779D-07  0.30784D-07 -0.37364D-14 -0.65888D-14  0.16227D-11
  0.10500D+00  0.21000D-02 -0.62914D-03 -0.62914D-03  0.64876D-10  0.77803D-10  0.76464D-11  0.14678D+03  0.88082D-06  0.88082D-06 -0.15798D-15  0.23386D-14  0.30180D-11
  0.10750D+00  0.21500D-02 -0.64411D-03 -0.64411D-03  0.64875D-10  0.77802D-10  0.76506D-11  0.15026D+03  0.49337D-05  0.49336D-05  0.39759D-14  0.41642D-14  0.30155D-11
  0.11000D+00  0.22000D-02 -0.65911D-03 -0.65911D-03  0.64874D-10  0.77801D-10  0.76545D-11  0.15374D+03  0.23956D-04  0.23956D-04 -0.13910D-14 -0.81521D-15 -0.10779D-11
  0.11250D+00  0.22500D-02 -0.67426D-03 -0.67426D-03  0.64873D-10  0.77800D-10  0.76588D-11  0.15717D+03  0.10692D-03  0.10692D-03  0.76417D-14  0.67905D-14  0.14128D-11
  0.11500D+00  0.23000D-02 -0.69005D-03 -0.69005D-03  0.64872D-10  0.77799D-10  0.76627D-11  0.16038D+03  0.36871D-03  0.36871D-03  0.27416D-13  0.26753D-13 -0.34321D-11
  0.11750D+00  0.23500D-02 -0.70774D-03 -0.70774D-03  0.64870D-10  0.77797D-10  0.76681D-11  0.16293D+03  0.59589D-03  0.59589D-03  0.41482D-13  0.44363D-13  0.70668D-11
  0.12000D+00  0.24000D-02 -0.72815D-03 -0.72815D-03  0.64869D-10  0.77796D-10  0.76737D-11  0.16453D+03  0.32523D-03  0.32523D-03  0.25056D-13  0.27523D-13 -0.34405D-12
  0.12250D+00  0.24500D-02 -0.75019D-03 -0.75019D-03  0.64868D-10  0.77794D-10  0.76810D-11  0.16554D+03  0.97958D-04  0.97958D-04  0.29827D-14  0.69000D-14  0.10419D-11
  0.12500D+00  0.25000D-02 -0.77277D-03 -0.77277D-03  0.64866D-10  0.77792D-10  0.76887D-11  0.16637D+03  0.29616D-04  0.29616D-04 -0.11306D-14  0.42141D-14  0.10042D-10
  0.12750D+00  0.25500D-02 -0.79551D-03 -0.79551D-03  0.64865D-10  0.77790D-10  0.76964D-11  0.16713D+03  0.13702D-04  0.13702D-04  0.42763D-15 -0.12457D-15  0.25442D-11
  0.13000D+00  0.26000D-02 -0.81832D-03 -0.81832D-03  0.64863D-10  0.77789D-10  0.77035D-11  0.16787D+03  0.10251D-04  0.10251D-04  0.32217D-14 -0.98143D-16 -0.92734D-11
  0.13250D+00  0.26500D-02 -0.84118D-03 -0.84118D-03  0.64862D-10  0.77787D-10  0.77109D-11  0.16858D+03  0.96195D-05  0.96195D-05  0.13401D-14  0.28969D-14 -0.38349D-11
  0.13500D+00  0.27000D-02 -0.86410D-03 -0.86410D-03  0.64860D-10  0.77785D-10  0.77178D-11  0.16929D+03  0.96806D-05  0.96806D-05 -0.25426D-14  0.13011D-14 -0.13850D-10
  0.13750D+00  0.27500D-02 -0.88706D-03 -0.88706D-03  0.64859D-10  0.77783D-10  0.77260D-11  0.16997D+03  0.99799D-05  0.99799D-05 -0.19638D-14  0.93760D-15 -0.15470D-11
  0.14000D+00  0.28000D-02 -0.91007D-03 -0.91007D-03  0.64857D-10  0.77781D-10  0.77351D-11  0.17063D+03  0.10427D-04  0.10427D-04  0.35038D-14  0.14975D-15  0.35967D-12
  0.14250D+00  0.28500D-02 -0.93313D-03 -0.93313D-03  0.64856D-10  0.77780D-10  0.77427D-11  0.17128D+03  0.11011D-04  0.11011D-04  0.14049D-14  0.14273D-14 -0.59045D-11
  0.14500D+00  0.29000D-02 -0.95625D-03 -0.95625D-03  0.64854D-10  0.77778D-10  0.77508D-11  0.17190D+03  0.11740D-04  0.11740D-04 -0.12752D-14  0.15918D-14  0.46638D-12
  0.14750D+00  0.29500D-02 -0.97943D-03 -0.97943D-03  0.64853D-10  0.77776D-10  0.77592D-11  0.17251D+03  0.12626D-04  0.12626D-04  0.24158D-14  0.71608D-15  0.49140D-12
  0.15000D+00  0.30000D-02 -0.10027D-02 -0.10027D-02  0.64851D-10  0.77774D-10  0.77673D-11  0.17309D+03  0.13685D-04  0.13685D-04 -0.20808D-14 -0.34757D-14  0.91133D-11
  0.15250D+00  0.30500D-02 -0.10260D-02 -0.10260D-02  0.64850D-10  0.77772D-10  0.77746D-11  0.17365D+03  0.14935D-04  0.14935D-04 -0.22666D-16 -0.15315D-14  0.17804D-11
  0.15500D+00  0.31000D-02 -0.10494D-02 -0.10494D-02  0.64848D-10  0.77771D-10  0.77831D-11  0.17418D+03  0.16398D-04  0.16398D-04 -0.14328D-14 -0.40567D-15  0.35270D-11
  0.15750D+00  0.31500D-02 -0.10728D-02 -0.10728D-02  0.64847D-10  0.77769D-10  0.77908D-11  0.17468D+03  0.18101D-04  0.18101D-04  0.32641D-14  0.72704D-16  0.68651D-11
  0.16000D+00  0.32000D-02 -0.10964D-02 -0.10964D-02  0.64845D-10  0.77767D-10  0.77985D-11  0.17515D+03  0.20075D-04  0.20075D-04  0.12080D-14  0.73739D-14  0.53717D-11
  0.16250D+00  0.32500D-02 -0.11201D-02 -0.11201D-02  0.64844D-10  0.77765D-10  0.78070D-11  0.17558D+03  0.22360D-04  0.22360D-04 -0.20360D-14  0.16671D-14 -0.70738D-11
  0.16500D+00  0.33000D-02 -0.11438D-02 -0.11438D-02  0.64842D-10  0.77763D-10  0.78164D-11  0.17597D+03  0.25006D-04  0.25006D-04 -0.13893D-14  0.12292D-14  0.40742D-11
  0.16750D+00  0.33500D-02 -0.11677D-02 -0.11677D-02  0.64841D-10  0.77761D-10  0.78243D-11  0.17632D+03  0.28072D-04  0.28072D-04  0.27403D-14  0.24893D-14  0.97516D-11
  0.17000D+00  0.34000D-02 -0.11918D-02 -0.11918D-02  0.64839D-10  0.77760D-10  0.78327D-11  0.17662D+03  0.31638D-04  0.31638D-04  0.73829D-14  0.29949D-14  0.35332D-11
  0.17250D+00  0.34500D-02 -0.12160D-02 -0.12160D-02  0.64838D-10  0.77758D-10  0.78417D-11  0.17686D+03  0.35802D-04  0.35802D-04  0.35616D-14  0.69057D-15 -0.70321D-11
  0.17500D+00  0.35000D-02 -0.12403D-02 -0.12403D-02  0.64836D-10  0.77756D-10  0.78505D-11  0.17704D+03  0.40690D-04  0.40690D-04  0.20937D-14  0.38871D-14 -0.65400D-11
  0.17750D+00  0.35500D-02 -0.12649D-02 -0.12649D-02  0.64834D-10  0.77754D-10  0.78600D-11  0.17714D+03  0.46468D-04  0.46468D-04 -0.17389D-14 -0.27897D-15 -0.12476D-10
  0.18000D+00  0.36000D-02 -0.12898D-02 -0.12898D-02  0.64833D-10  0.77752D-10  0.78698D-11  0.17716D+03  0.53347D-04  0.53347D-04  0.34691D-14  0.37703D-14  0.20250D-12
  0.18250D+00  0.36500D-02 -0.13148D-02 -0.13148D-02  0.64831D-10  0.77750D-10  0.78797D-11  0.17709D+03  0.61601D-04  0.61601D-04  0.83108D-14  0.85784D-14  0.25582D-11
  0.18500D+00  0.37000D-02 -0.13402D-02 -0.13402D-02  0.64830D-10  0.77748D-10  0.78892D-11  0.17691D+03  0.71580D-04  0.71580D-04  0.10859D-13  0.10220D-13 -0.18036D-10
  0.18750D+00  0.37500D-02 -0.13660D-02 -0.13660D-02  0.64828D-10  0.77746D-10  0.79004D-11  0.17660D+03  0.83712D-04  0.83712D-04  0.65496D-14  0.52983D-14  0.21472D-10
  0.19000D+00  0.38000D-02 -0.13922D-02 -0.13922D-02  0.64826D-10  0.77744D-10  0.79099D-11  0.17615D+03  0.98457D-04  0.98457D-04  0.61610D-14  0.68410D-14  0.32785D-11
  0.19250D+00  0.38500D-02 -0.14189D-02 -0.14189D-02  0.64824D-10  0.77742D-10  0.79206D-11  0.17552D+03  0.11612D-03  0.11612D-03  0.93312D-14  0.11175D-13 -0.47774D-11
  0.19500D+00  0.39000D-02 -0.14461D-02 -0.14461D-02  0.64823D-10  0.77740D-10  0.79315D-11  0.17468D+03  0.13614D-03  0.13614D-03  0.90457D-14  0.10015D-13  0.54629D-11
  0.19750D+00  0.39500D-02 -0.14741D-02 -0.14741D-02  0.64821D-10  0.77738D-10  0.79426D-11  0.17360D+03  0.15481D-03  0.15481D-03  0.10627D-13  0.10463D-13 -0.48748D-11
  0.20000D+00  0.40000D-02 -0.15028D-02 -0.15028D-02  0.64819D-10  0.77735D-10  0.79545D-11  0.17226D+03  0.15810D-03  0.15810D-03  0.69381D-14  0.11030D-13 -0.14307D-10
  0.20250D+00  0.40500D-02 -0.15323D-02 -0.15323D-02  0.64817D-10  0.77733D-10  0.79665D-11  0.17064D+03  0.10386D-03  0.10386D-03  0.45038D-14  0.70333D-14 -0.72314D-11
  0.20500D+00  0.41000D-02 -0.15622D-02 -0.15622D-02  0.64815D-10  0.77731D-10  0.79797D-11  0.16886D+03 -0.83474D-04 -0.83474D-04 -0.50766D-14 -0.60557D-14  0.16520D-10
  0.20750D+00  0.41500D-02 -0.15917D-02 -0.15917D-02  0.64813D-10  0.77729D-10  0.79922D-11  0.16725D+03 -0.34852D-03 -0.34852D-03 -0.28152D-13 -0.20365D-13  0.41536D-11
  0.21000D+00  0.42000D-02 -0.16194D-02 -0.16194D-02  0.64811D-10  0.77726D-10  0.80034D-11  0.16622D+03 -0.40581D-03 -0.40581D-03 -0.20691D-13 -0.33830D-13 -0.66082D-11
  0.21250D+00  0.42500D-02 -0.16452D-02 -0.16452D-02  0.64810D-10  0.77724D-10  0.80155D-11  0.16587D+03 -0.27947D-03 -0.27947D-03 -0.12027D-13 -0.26641D-13 -0.31201D-11
  0.21500D+00  0.43000D-02 -0.16697D-02 -0.16697D-02  0.64808D-10  0.77723D-10  0.80261D-11  0.16601D+03 -0.15074D-03 -0.15074D-03 -0.95473D-14 -0.10617D-13 -0.69123D-11
  0.21750D+00  0.43500D-02 -0.16933D-02 -0.16933D-02  0.64807D-10  0.77721D-10  0.80370D-11  0.16642D+03 -0.66937D-04 -0.66937D-04 -0.12556D-13 -0.39616D-14  0.10270D-10
  0.22000D+00  0.44000D-02 -0.17167D-02 -0.17167D-02  0.64805D-10  0.77719D-10  0.80464D-11  0.16695D+03 -0.19061D-04 -0.19061D-04 -0.85262D-14  0.35201D-14 -0.63439D-11
  0.22250D+00  0.44500D-02 -0.17399D-02 -0.17399D-02  0.64804D-10  0.77717D-10  0.80578D-11  0.16751D+03  0.58349D-05  0.58349D-05  0.75975D-15  0.80117D-14  0.35146D-11
  0.22500D+00  0.45000D-02 -0.17632D-02 -0.17632D-02  0.64802D-10  0.77715D-10  0.80680D-11  0.16807D+03  0.16965D-04  0.16965D-04  0.31304D-14  0.31723D-14 -0.11131D-10
  0.22750D+00  0.45500D-02 -0.17865D-02 -0.17865D-02  0.64801D-10  0.77713D-10  0.80787D-11  0.16860D+03  0.20023D-04  0.20023D-04  0.17456D-14 -0.38134D-14  0.61116D-11
  0.23000D+00  0.46000D-02 -0.18100D-02 -0.18100D-02  0.64799D-10  0.77712D-10  0.80901D-11  0.16909D+03  0.18771D-04  0.18771D-04  0.17582D-14 -0.37422D-14 -0.67520D-11
  0.23250D+00  0.46500D-02 -0.18335D-02 -0.18335D-02  0.64798D-10  0.77710D-10  0.81007D-11  0.16955D+03  0.15563D-04  0.15563D-04  0.13939D-14  0.23071D-14  0.13295D-10
  0.23500D+00  0.47000D-02 -0.18571D-02 -0.18571D-02  0.64796D-10  0.77708D-10  0.81118D-11  0.16998D+03  0.11829D-04  0.11829D-04  0.55661D-14  0.55120D-14 -0.73899D-12
  0.23750D+00  0.47500D-02 -0.18808D-02 -0.18808D-02  0.64795D-10  0.77706D-10  0.81225D-11  0.17039D+03  0.83640D-05  0.83640D-05  0.80334D-14  0.42191D-14 -0.13262D-10
  0.24000D+00  0.48000D-02 -0.19045D-02 -0.19045D-02  0.64793D-10  0.77704D-10  0.81334D-11  0.17078D+03  0.55679D-05  0.55679D-05 -0.15225D-15 -0.21245D-14 -0.56397D-11
  0.24250D+00  0.48500D-02 -0.19282D-02 -0.19282D-02  0.64792D-10  0.77702D-10  0.81446D-11  0.17117D+03  0.34597D-05  0.34597D-05  0.76932D-15 -0.30265D-14  0.11592D-11
  0.24500D+00  0.49000D-02 -0.19520D-02 -0.19520D-02  0.64790D-10  0.77701D-10  0.81556D-11  0.17154D+03  0.20711D-05  0.20711D-05 -0.24908D-14  0.44438D-14 -0.30889D-11
  0.24750D+00  0.49500D-02 -0.19757D-02 -0.19757D-02  0.64788D-10  0.77699D-10  0.81669D-11  0.17192D+03  0.12364D-05  0.12364D-05  0.80961D-14  0.67667D-14  0.46631D-11
  0.25000D+00  0.50000D-02 -0.19995D-02 -0.19995D-02  0.64787D-10  0.77697D-10  0.81774D-11  0.17229D+03  0.80702D-06  0.80702D-06  0.36937D-14  0.20025D-14 -0.27082D-11
  0.25250D+00  0.50500D-02 -0.20233D-02 -0.20233D-02  0.64785D-10  0.77695D-10  0.81884D-11  0.17265D+03  0.64466D-06  0.64466D-06  0.16107D-14  0.61079D-15  0.73248D-11
  0.25500D+00  0.51000D-02 -0.20471D-02 -0.20471D-02  0.64784D-10  0.77693D-10  0.82000D-11  0.17302D+03  0.63825D-06  0.63825D-06  0.13185D-14  0.45963D-14 -0.82907D-12
  0.25750D+00  0.51500D-02 -0.20708D-02 -0.20708D-02  0.64782D-10  0.77691D-10  0.82114D-11  0.17338D+03  0.70755D-06  0.70755D-06  0.38612D-14  0.61109D-14 -0.57129D-11
  0.26000D+00  0.52000D-02 -0.20946D-02 -0.20946D-02  0.64781D-10  0.77689D-10  0.82237D-11  0.17375D+03  0.80028D-06  0.80028D-06  0.40674D-14  0.18389D-14  0.75379D-11
  0.26250D+00  0.52500D-02 -0.21184D-02 -0.21184D-02  0.64779D-10  0.77688D-10  0.82353D-11  0.17411D+03  0.88646D-06  0.88646D-06  0.11373D-14  0.23099D-14 -0.15442D-11
  0.26500D+00  0.53000D-02 -0.21422D-02 -0.21422D-02  0.64778D-10  0.77686D-10  0.82472D-11  0.17446D+03  0.95205D-06  0.95205D-06  0.13790D-14  0.72679D-14 -0.13424D-12
  0.26750D+00  0.53500D-02 -0.21660D-02 -0.21660D-02  0.64776D-10  0.77684D-10  0.82590D-11  0.17482D+03  0.99324D-06  0.99324D-06 -0.37265D-14  0.11669D-14 -0.78521D-11
  0.27000D+00  0.54000D-02 -0.21898D-02 -0.21898D-02  0.64775D-10  0.77682D-10  0.82714D-11  0.17517D+03  0.10120D-05  0.10120D-05  0.55474D-15 -0.94085D-15 -0.42702D-11
  0.27250D+00  0.54500D-02 -0.22136D-02 -0.22136D-02  0.64773D-10  0.77680D-10  0.82828D-11  0.17553D+03  0.10131D-05  0.10131D-05 -0.44530D-15  0.25171D-14 -0.58421D-11
  0.27500D+00  0.55000D-02 -0.22374D-02 -0.22374D-02  0.64772D-10  0.77678D-10  0.82939D-11  0.17587D+03  0.10017D-05  0.10017D-05  0.30796D-14  0.33168D-14 -0.92575D-11
  0.27750D+00  0.55500D-02 -0.22613D-02 -0.22613D-02  0.64770D-10  0.77677D-10  0.83050D-11  0.17622D+03  0.98254D-06  0.98254D-06  0.28717D-14  0.53314D-14 -0.65425D-11
  0.28000D+00  0.56000D-02 -0.22851D-02 -0.22851D-02  0.64768D-10  0.77675D-10  0.83179D-11  0.17656D+03  0.95936D-06  0.95936D-06 -0.66723D-14 -0.53358D-14  0.85520D-11
  0.28250D+00  0.56500D-02 -0.23089D-02 -0.23089D-02  0.64767D-10  0.77673D-10  0.83295D-11  0.17691D+03  0.93479D-06  0.93479D-06 -0.53756D-14 -0.38931D-14  0.81247D-12
  0.28500D+00  0.57000D-02 -0.23328D-02 -0.23328D-02  0.64765D-10  0.77671D-10  0.83419D-11  0.17724D+03  0.91046D-06  0.91045D-06  0.25625D-15 -0.23488D-14  0.15295D-11
  0.28750D+00  0.57500D-02 -0.23566D-02 -0.23566D-02  0.64764D-10  0.77669D-10  0.83543D-11  0.17758D+03  0.88722D-06  0.88723D-06 -0.32122D-14 -0.42571D-14  0.11596D-10
  0.29000D+00  0.58000D-02 -0.23804D-02 -0.23804D-02  0.64762D-10  0.77667D-10  0.83650D-11  0.17792D+03  0.86544D-06  0.86543D-06  0.57387D-14 -0.19932D-14 -0.38350D-11
  0.29250D+00  0.58500D-02 -0.24043D-02 -0.24043D-02  0.64761D-10  0.77665D-10  0.83771D-11  0.17825D+03  0.84509D-06  0.84509D-06  0.25853D-14 -0.13130D-14 -0.43490D-11
  0.29500D+00  0.59000D-02 -0.24281D-02 -0.24281D-02  0.64759D-10  0.77664D-10  0.83900D-11  0.17858D+03  0.82602D-06  0.82602D-06 -0.20934D-14 -0.26018D-14  0.18837D-11
  0.29750D+00  0.59500D-02 -0.24520D-02 -0.24520D-02  0.64758D-10  0.77662D-10  0.84021D-11  0.17891D+03  0.80799D-06  0.80799D-06 -0.49263D-14 -0.15548D-14 -0.90078D-11
  0.30000D+00  0.60000D-02 -0.24758D-02 -0.24758D-02  0.64756D-10  0.77660D-10  0.84157D-11  0.17923D+03  0.79077D-06  0.79078D-06  0.44676D-14 -0.14398D-14  0.13427D-10
  0.30250D+00  0.60500D-02 -0.24997D-02 -0.24997D-02  0.64755D-10  0.77658D-10  0.84269D-11  0.17956D+03  0.77419D-06  0.77419D-06  0.47945D-14  0.22800D-14 -0.43907D-11
  0.30500D+00  0.61000D-02 -0.25236D-02 -0.25236D-02  0.64753D-10  0.77656D-10  0.84382D-11  0.17988D+03  0.75808D-06  0.75808D-06  0.30706D-14  0.31514D-14 -0.94563D-11
  0.30750D+00  0.61500D-02 -0.25475D-02 -0.25475D-02  0.64751D-10  0.77654D-10  0.84530D-11  0.18020D+03  0.74235D-06  0.74235D-06 -0.29886D-14  0.68694D-14  0.10083D-10
  0.31000D+00  0.62000D-02 -0.25713D-02 -0.25713D-02  0.64750D-10  0.77653D-10  0.84664D-11  0.18052D+03  0.72695D-06  0.72695D-06 -0.82174D-15  0.76489D-15 -0.20277D-12
  0.31250D+00  0.62500D-02 -0.25952D-02 -0.25952D-02  0.64748D-10  0.77651D-10  0.84784D-11  0.18084D+03  0.71184D-06  0.71184D-06  0.12802D-14 -0.24070D-14 -0.10208D-10
  0.31500D+00  0.63000D-02 -0.26191D-02 -0.26191D-02  0.64747D-10  0.77649D-10  0.84917D-11  0.18115D+03  0.69702D-06  0.69701D-06 -0.51248D-15  0.24160D-15  0.82170D-11
  0.31750D+00  0.63500D-02 -0.26430D-02 -0.26430D-02  0.64745D-10  0.77647D-10  0.85044D-11  0.18146D+03  0.68247D-06  0.68247D-06  0.44912D-14  0.71088D-14 -0.19954D-10
  0.32000D+00  0.64000D-02 -0.26669D-02 -0.26669D-02  0.64744D-10  0.77645D-10  0.85181D-11  0.18178D+03  0.66820D-06  0.66820D-06 -0.22983D-14  0.51709D-14  0.95226D-11
  0.32250D+00  0.64500D-02 -0.26908D-02 -0.26908D-02  0.64742D-10  0.77643D-10  0.85299D-11  0.18208D+03  0.65421D-06  0.65421D-06 -0.18096D-14  0.15222D-14  0.15200D-10
  0.32500D+00  0.65000D-02 -0.27147D-02 -0.27147D-02  0.64741D-10  0.77641D-10  0.85429D-11  0.18239D+03  0.64051D-06  0.64051D-06  0.22932D-14 -0.32849D-15 -0.59730D-11
  0.32750D+00  0.65500D-02 -0.27386D-02 -0.27386D-02  0.64739D-10  0.77640D-10  0.85560D-11  0.18270D+03  0.62709D-06  0.62708D-06  0.34961D-14  0.64308D-15 -0.62080D-11
  0.33000D+00  0.66000D-02 -0.27625D-02 -0.27625D-02  0.64738D-10  0.77638D-10  0.85697D-11  0.18300D+03  0.61394D-06  0.61394D-06 -0.15254D-14  0.17364D-14  0.74996D-11
  0.33250D+00  0.66500D-02 -0.27864D-02 -0.27864D-02  0.64736D-10  0.77636D-10  0.85834D-11  0.18330D+03  0.60107D-06  0.60106D-06 -0.40391D-15 -0.68556D-15  0.44269D-11
  0.33500D+00  0.67000D-02 -0.28103D-02 -0.28103D-02  0.64734D-10  0.77634D-10  0.85956D-11  0.18360D+03  0.58846D-06  0.58846D-06  0.94159D-15  0.28475D-14 -0.75973D-11
  0.33750D+00  0.67500D-02 -0.28342D-02 -0.28342D-02  0.64733D-10  0.77632D-10  0.86114D-11  0.18390D+03  0.57611D-06  0.57611D-06 -0.21855D-14  0.48182D-15 -0.48005D-11
  0.34000D+00  0.68000D-02 -0.28581D-02 -0.28581D-02  0.64731D-10  0.77630D-10  0.86253D-11  0.18420D+03  0.56401D-06  0.56401D-06 -0.19227D-14 -0.40685D-15 -0.26340D-11
  0.34250D+00  0.68500D-02 -0.28820D-02 -0.28820D-02  0.64730D-10  0.77628D-10  0.86375D-11  0.18450D+03  0.55216D-06  0.55216D-06 -0.42608D-14 -0.41817D-14 -0.22634D-11
  0.34500D+00  0.69000D-02 -0.29059D-02 -0.29059D-02  0.64728D-10  0.77627D-10  0.86508D-11  0.18479D+03  0.54054D-06  0.54054D-06 -0.24364D-14 -0.20921D-15  0.76604D-11
  0.34750D+00  0.69500D-02 -0.29299D-02 -0.29299D-02  0.64727D-10  0.77625D-10  0.86650D-11  0.18508D+03  0.52916D-06  0.52915D-06  0.52764D-14  0.31178D-14  0.62940D-11
  0.35000D+00  0.70000D-02 -0.29538D-02 -0.29538D-02  0.64725D-10  0.77623D-10  0.86781D-11  0.18537D+03  0.51799D-06  0.51799D-06  0.62558D-14  0.55710D-14 -0.44133D-11
  0.35250D+00  0.70500D-02 -0.29777D-02 -0.29777D-02  0.64724D-10  0.77621D-10  0.86916D-11  0.18566D+03  0.50705D-06  0.50705D-06 -0.24708D-15 -0.72885D-15 -0.32096D-12
  0.35500D+00  0.71000D-02 -0.30016D-02 -0.30016D-02  0.64722D-10  0.77619D-10  0.87041D-11  0.18595D+03  0.49632D-06  0.49632D-06 -0.26098D-14 -0.10482D-14  0.91621D-11
  0.35750D+00  0.71500D-02 -0.30256D-02 -0.30256D-02  0.64721D-10  0.77617D-10  0.87167D-11  0.18624D+03  0.48579D-06  0.48579D-06 -0.48322D-14 -0.20540D-14  0.24292D-12
  0.36000D+00  0.72000D-02 -0.30495D-02 -0.30495D-02  0.64719D-10  0.77615D-10  0.87293D-11  0.18652D+03  0.47547D-06  0.47547D-06 -0.10963D-14 -0.20879D-14 -0.79433D-11
  0.36250D+00  0.72500D-02 -0.30734D-02 -0.30734D-02  0.64717D-10  0.77614D-10  0.87435D-11  0.18680D+03  0.46534D-06  0.46534D-06 -0.31614D-14 -0.16357D-14  0.76608D-11
  0.36500D+00  0.73000D-02 -0.30974D-02 -0.30974D-02  0.64716D-10  0.77612D-10  0.87566D-11  0.18709D+03  0.45540D-06  0.45540D-06 -0.25237D-14 -0.51859D-15  0.28249D-11
  0.36750D+00  0.73500D-02 -0.31213D-02 -0.31213D-02  0.64714D-10  0.77610D-10  0.87702D-11  0.18737D+03  0.44565D-06  0.44565D-06  0.15195D-14  0.14978D-14 -0.45490D-11
  0.37000D+00  0.74000D-02 -0.31453D-02 -0.31453D-02  0.64713D-10  0.77608D-10  0.87832D-11  0.18765D+03  0.43608D-06  0.43608D-06 -0.36192D-14 -0.21044D-14 -0.38363D-11
  0.37250D+00  0.74500D-02 -0.31692D-02 -0.31692D-02  0.64711D-10  0.77606D-10  0.87970D-11  0.18792D+03  0.42669D-06  0.42669D-06 -0.47515D-14 -0.55678D-14 -0.17602D-11
  0.37500D+00  0.75000D-02 -0.31932D-02 -0.31932D-02  0.64710D-10  0.77604D-10  0.88123D-11  0.18820D+03  0.41747D-06  0.41747D-06  0.18137D-14  0.59293D-15  0.47530D-11
  0.37750D+00  0.75500D-02 -0.32171D-02 -0.32171D-02  0.64708D-10  0.77602D-10  0.88270D-11  0.18847D+03  0.40842D-06  0.40842D-06 -0.35058D-14  0.13235D-14  0.46513D-11
  0.38000D+00  0.76000D-02 -0.32411D-02 -0.32411D-02  0.64707D-10  0.77601D-10  0.88405D-11  0.18875D+03  0.39954D-06  0.39954D-06 -0.14293D-14  0.11189D-14 -0.13475D-10
  0.38250D+00  0.76500D-02 -0.32650D-02 -0.32650D-02  0.64705D-10  0.77599D-10  0.88571D-11  0.18902D+03  0.39081D-06  0.39081D-06 -0.70679D-15  0.76424D-15  0.10104D-10
  0.38500D+00  0.77000D-02 -0.32890D-02 -0.32890D-02  0.64703D-10  0.77597D-10  0.88706D-11  0.18929D+03  0.38224D-06  0.38224D-06  0.51577D-14 -0.60972D-15 -0.74301D-11
  0.38750D+00  0.77500D-02 -0.33129D-02 -0.33129D-02  0.64702D-10  0.77595D-10  0.88846D-11  0.18956D+03  0.37383D-06  0.37383D-06  0.15230D-14 -0.11017D-14 -0.10494D-10
  0.39000D+00  0.78000D-02 -0.33369D-02 -0.33369D-02  0.64700D-10  0.77593D-10  0.88988D-11  0.18983D+03  0.36556D-06  0.36556D-06  0.19868D-14  0.33606D-14 -0.16466D-11
  0.39250D+00  0.78500D-02 -0.33609D-02 -0.33609D-02  0.64699D-10  0.77591D-10  0.89129D-11  0.19010D+03  0.35744D-06  0.35744D-06  0.35793D-14  0.49187D-14  0.11889D-10
  0.39500D+00  0.79000D-02 -0.33848D-02 -0.33848D-02  0.64697D-10  0.77589D-10  0.89276D-11  0.19036D+03  0.34946D-06  0.34946D-06  0.93135D-14  0.80700D-14  0.84085D-12
  0.39750D+00  0.79500D-02 -0.34088D-02 -0.34088D-02  0.64696D-10  0.77588D-10  0.89426D-11  0.19063D+03  0.34162D-06  0.34163D-06 -0.68945D-14 -0.55297D-15  0.15879D-11
  0.40000D+00  0.80000D-02 -0.34328D-02 -0.34328D-02  0.64694D-10  0.77586D-10  0.89568D-11  0.19089D+03  0.33392D-06  0.33392D-06  0.20462D-14 -0.65774D-15 -0.13121D-10
  0.40250D+00  0.80500D-02 -0.34567D-02 -0.34567D-02  0.64693D-10  0.77584D-10  0.89714D-11  0.19115D+03  0.32635D-06  0.32635D-06  0.33566D-14 -0.25600D-14 -0.24682D-11
  0.40500D+00  0.81000D-02 -0.34807D-02 -0.34807D-02  0.64691D-10  0.77582D-10  0.89855D-11  0.19141D+03  0.31891D-06  0.31891D-06  0.29931D-14 -0.45723D-14 -0.10034D-10
  0.40750D+00  0.81500D-02 -0.35047D-02 -0.35047D-02  0.64690D-10  0.77580D-10  0.90007D-11  0.19167D+03  0.31160D-06  0.31160D-06 -0.52709D-14 -0.63356D-14 -0.11987D-11
  0.41000D+00  0.82000D-02 -0.35287D-02 -0.35287D-02  0.64688D-10  0.77578D-10  0.90158D-11  0.19193D+03  0.30440D-06  0.30440D-06 -0.51470D-14 -0.38189D-14  0.40679D-11
  0.41250D+00  0.82500D-02 -0.35526D-02 -0.35526D-02  0.64686D-10  0.77576D-10  0.90293D-11  0.19219D+03  0.29733D-06  0.29733D-06 -0.56329D-14 -0.65638D-14 -0.27271D-11
  0.41500D+00  0.83000D-02 -0.35766D-02 -0.35766D-02  0.64685D-10  0.77575D-10  0.90455D-11  0.19244D+03  0.29038D-06  0.29038D-06  0.16446D-15 -0.45134D-14 -0.12999D-11
  0.41750D+00  0.83500D-02 -0.36006D-02 -0.36006D-02  0.64683D-10  0.77573D-10  0.90603D-11  0.19270D+03  0.28355D-06  0.28355D-06  0.11160D-14 -0.26636D-15 -0.12512D-10
  0.42000D+00  0.84000D-02 -0.36246D-02 -0.36246D-02  0.64682D-10  0.77571D-10  0.90747D-11  0.19295D+03  0.27682D-06  0.27682D-06  0.32991D-14  0.28380D-14 -0.11115D-10
  0.42250D+00  0.84500D-02 -0.36486D-02 -0.36486D-02  0.64680D-10  0.77569D-10  0.90880D-11  0.19320D+03  0.27021D-06  0.27021D-06  0.64614D-15  0.13150D-14 -0.13726D-10
  0.42500D+00  0.85000D-02 -0.36725D-02 -0.36725D-02  0.64679D-10  0.77567D-10  0.91043D-11  0.19346D+03  0.26371D-06  0.26370D-06 -0.96722D-14 -0.95567D-15  0.36601D-11
  0.42750D+00  0.85500D-02 -0.36965D-02 -0.36965D-02  0.64677D-10  0.77565D-10  0.91193D-11  0.19371D+03  0.25730D-06  0.25731D-06 -0.48847D-14 -0.54991D-14 -0.87290D-11
  0.43000D+00  0.86000D-02 -0.37205D-02 -0.37205D-02  0.64676D-10  0.77563D-10  0.91338D-11  0.19395D+03  0.25101D-06  0.25101D-06 -0.11216D-14 -0.23633D-14 -0.59005D-11
  0.43250D+00  0.86500D-02 -0.37445D-02 -0.37445D-02  0.64674D-10  0.77562D-10  0.91505D-11  0.19420D+03  0.24481D-06  0.24482D-06 -0.45882D-14 -0.26333D-14  0.78090D-11
  0.43500D+00  0.87000D-02 -0.37685D-02 -0.37685D-02  0.64672D-10  0.77560D-10  0.91673D-11  0.19445D+03  0.23872D-06  0.23872D-06 -0.26380D-14  0.34906D-16  0.13741D-11
  0.43750D+00  0.87500D-02 -0.37925D-02 -0.37925D-02  0.64671D-10  0.77558D-10  0.91822D-11  0.19470D+03  0.23272D-06  0.23272D-06 -0.55287D-14 -0.12980D-14  0.89755D-11
  0.44000D+00  0.88000D-02 -0.38165D-02 -0.38165D-02  0.64669D-10  0.77556D-10  0.91974D-11  0.19494D+03  0.22682D-06  0.22682D-06 -0.52757D-14 -0.90140D-14 -0.15827D-10
  0.44250D+00  0.88500D-02 -0.38405D-02 -0.38405D-02  0.64668D-10  0.77554D-10  0.92132D-11  0.19519D+03  0.22101D-06  0.22100D-06 -0.52591D-14  0.16400D-14 -0.34242D-11
  0.44500D+00  0.89000D-02 -0.38644D-02 -0.38644D-02  0.64666D-10  0.77552D-10  0.92294D-11  0.19543D+03  0.21528D-06  0.21529D-06  0.41328D-14  0.22374D-14  0.15800D-10
  0.44750D+00  0.89500D-02 -0.38884D-02 -0.38884D-02  0.64665D-10  0.77550D-10  0.92438D-11  0.19567D+03  0.20965D-06  0.20965D-06 -0.28872D-16  0.33650D-14  0.69496D-11
  0.45000D+00  0.90000D-02 -0.39124D-02 -0.39124D-02  0.64663D-10  0.77549D-10  0.92601D-11  0.19591D+03  0.20411D-06  0.20411D-06 -0.27589D-14 -0.73676D-14 -0.88508D-12
  0.45250D+00  0.90500D-02 -0.39364D-02 -0.39364D-02  0.64662D-10  0.77547D-10  0.92737D-11  0.19615D+03  0.19865D-06  0.19865D-06  0.86688D-16 -0.25853D-14 -0.89232D-11
  0.45500D+00  0.91000D-02 -0.39604D-02 -0.39604D-02  0.64660D-10  0.77545D-10  0.92902D-11  0.19639D+03  0.19327D-06  0.19327D-06  0.20586D-14  0.17664D-14 -0.24139D-10
  0.45750D+00  0.91500D-02 -0.39844D-02 -0.39844D-02  0.64659D-10  0.77543D-10  0.93048D-11  0.19663D+03  0.18798D-06  0.18798D-06 -0.40196D-14 -0.69564D-15 -0.14621D-10
  0.46000D+00  0.92000D-02 -0.40084D-02 -0.40084D-02  0.64657D-10  0.77541D-10  0.93202D-11  0.19687D+03  0.18277D-06  0.18277D-06  0.62371D-15 -0.26187D-14 -0.24654D-11
  0.46250D+00  0.92500D-02 -0.40324D-02 -0.40324D-02  0.64655D-10  0.77539D-10  0.93378D-11  0.19710D+03  0.17763D-06  0.17763D-06 -0.36147D-14 -0.36964D-14  0.26237D-10
  0.46500D+00  0.93000D-02 -0.40564D-02 -0.40564D-02  0.64654D-10  0.77537D-10  0.93522D-11  0.19734D+03  0.17257D-06  0.17257D-06 -0.26604D-14 -0.42601D-14 -0.75127D-11
  0.46750D+00  0.93500D-02 -0.40804D-02 -0.40804D-02  0.64652D-10  0.77535D-10  0.93685D-11  0.19757D+03  0.16759D-06  0.16759D-06  0.58502D-14  0.34493D-14  0.23660D-11
  0.47000D+00  0.94000D-02 -0.41044D-02 -0.41044D-02  0.64651D-10  0.77534D-10  0.93856D-11  0.19780D+03  0.16268D-06  0.16268D-06 -0.28547D-14 -0.47922D-14 -0.44304D-11
  0.47250D+00  0.94500D-02 -0.41284D-02 -0.41284D-02  0.64649D-10  0.77532D-10  0.94011D-11  0.19804D+03  0.15785D-06  0.15785D-06 -0.41373D-15 -0.88848D-15 -0.12652D-10
  0.47500D+00  0.95000D-02 -0.41524D-02 -0.41524D-02  0.64648D-10  0.77530D-10  0.94187D-11  0.19827D+03  0.15308D-06  0.15308D-06  0.37992D-14  0.35908D-14  0.22927D-10
  0.47750D+00  0.95500D-02 -0.41764D-02 -0.41764D-02  0.64646D-10  0.77528D-10  0.94336D-11  0.19850D+03  0.14839D-06  0.14838D-06  0.16357D-15  0.77509D-15 -0.67417D-11
  0.48000D+00  0.96000D-02 -0.42004D-02 -0.42004D-02  0.64645D-10  0.77526D-10  0.94489D-11  0.19873D+03  0.14376D-06  0.14376D-06  0.14591D-16  0.82845D-15 -0.93884D-12
  0.48250D+00  0.96500D-02 -0.42245D-02 -0.42245D-02  0.64643D-10  0.77524D-10  0.94641D-11  0.19896D+03  0.13920D-06  0.13920D-06  0.10580D-14 -0.37563D-14 -0.91519D-11
  0.48500D+00  0.97000D-02 -0.42485D-02 -0.42485D-02  0.64641D-10  0.77522D-10  0.94784D-11  0.19919D+03  0.13470D-06  0.13470D-06  0.11673D-14  0.91799D-15 -0.10590D-12
  0.48750D+00  0.97500D-02 -0.42725D-02 -0.42725D-02  0.64640D-10  0.77521D-10  0.94952D-11  0.19941D+03  0.13027D-06  0.13027D-06  0.26784D-14  0.52563D-14  0.25555D-10
  0.49000D+00  0.98000D-02 -0.42965D-02 -0.42965D-02  0.64638D-10  0.77519D-10  0.95114D-11  0.19964D+03  0.12591D-06  0.12590D-06  0.27961D-14  0.66532D-14 -0.29544D-10
  0.49250D+00  0.98500D-02 -0.43205D-02 -0.43205D-02  0.64637D-10  0.77517D-10  0.95298D-11  0.19986D+03  0.12160D-06  0.12160D-06 -0.23804D-15  0.12021D-14  0.15739D-10
  0.49500D+00  0.99000D-02 -0.43445D-02 -0.43445D-02  0.64635D-10  0.77515D-10  0.95444D-11  0.20009D+03  0.11735D-06  0.11736D-06 -0.57196D-15 -0.27797D-14  0.88203D-11
  0.49750D+00  0.99500D-02 -0.43685D-02 -0.43685D-02  0.64634D-10  0.77513D-10  0.95605D-11  0.20031D+03  0.11317D-06  0.11317D-06  0.43846D-14 -0.55341D-15  0.24978D-10
  0.50000D+00  0.10000D-01 -0.43925D-02 -0.43925D-02  0.64632D-10  0.77511D-10  0.95760D-11  0.20054D+03  0.10904D-06  0.10904D-06  0.14674D-14  0.32364D-14  0.19194D-11
  0.50250D+00  0.10010D-01 -0.44011D-02 -0.44011D-02  0.64632D-10  0.77511D-10  0.95887D-11  0.19926D+03 -0.22360D-02 -0.22360D-02  0.11205D-11  0.13445D-11  0.21685D-10
  0.50500D+00  0.10020D-01 -0.44067D-02 -0.44067D-02  0.64631D-10  0.77510D-10  0.95927D-11  0.19901D+03 -0.17482D-03 -0.17482D-03  0.45569D-12  0.54571D-12  0.32280D-11
  0.50750D+00  0.10030D-01 -0.44113D-02 -0.44113D-02  0.64631D-10  0.77510D-10  0.95957D-11  0.19912D+03 -0.85908D-04 -0.85908D-04 -0.30707D-13 -0.36838D-13 -0.26691D-11
  0.51000D+00  0.10040D-01 -0.44155D-02 -0.44155D-02  0.64631D-10  0.77509D-10  0.95988D-11  0.19938D+03 -0.47380D-04 -0.47380D-04 -0.13806D-12 -0.16222D-12  0.15579D-11
  0.51250D+00  0.10050D-01 -0.44194D-02 -0.44194D-02  0.64630D-10  0.77509D-10  0.96014D-11  0.19974D+03 -0.28100D-04 -0.28100D-04 -0.81957D-13 -0.88287D-13 -0.24660D-11
  0.51500D+00  0.10060D-01 -0.44232D-02 -0.44232D-02  0.64630D-10  0.77509D-10  0.96041D-11  0.20014D+03 -0.17398D-04 -0.17398D-04 -0.16366D-13 -0.13118D-13  0.15773D-11
  0.51750D+00  0.10070D-01 -0.44269D-02 -0.44269D-02  0.64630D-10  0.77509D-10  0.96069D-11  0.20057D+03 -0.10846D-04 -0.10846D-04  0.11479D-13  0.13565D-13  0.34656D-11
  0.52000D+00  0.10080D-01 -0.44305D-02 -0.44305D-02  0.64630D-10  0.77508D-10  0.96092D-11  0.20103D+03 -0.65116D-05 -0.65116D-05  0.90299D-14  0.26195D-14 -0.12210D-11
  0.52250D+00  0.10090D-01 -0.44341D-02 -0.44341D-02  0.64629D-10  0.77508D-10  0.96119D-11  0.20149D+03 -0.34534D-05 -0.34534D-05  0.32463D-14  0.36848D-15  0.72641D-12
  0.52500D+00  0.10100D-01 -0.44377D-02 -0.44377D-02  0.64629D-10  0.77508D-10  0.96144D-11  0.20196D+03 -0.11732D-05 -0.11732D-05  0.36947D-14 -0.12330D-14  0.20381D-11
  0.52750D+00  0.10110D-01 -0.44413D-02 -0.44413D-02  0.64629D-10  0.77507D-10  0.96165D-11  0.20244D+03  0.60768D-06  0.60768D-06 -0.12232D-14  0.55177D-15 -0.31314D-11
  0.53000D+00  0.10120D-01 -0.44449D-02 -0.44449D-02  0.64629D-10  0.77507D-10  0.96194D-11  0.20291D+03  0.20515D-05  0.20515D-05  0.11905D-14  0.34096D-14 -0.90720D-12
  0.53250D+00  0.10130D-01 -0.44485D-02 -0.44485D-02  0.64628D-10  0.77507D-10  0.96219D-11  0.20338D+03  0.32554D-05  0.32554D-05  0.21905D-14  0.33555D-14 -0.17502D-11
  0.53500D+00  0.10140D-01 -0.44521D-02 -0.44521D-02  0.64628D-10  0.77507D-10  0.96243D-11  0.20384D+03  0.42776D-05  0.42776D-05 -0.14620D-14 -0.60037D-15 -0.30818D-12
  0.53750D+00  0.10150D-01 -0.44557D-02 -0.44557D-02  0.64628D-10  0.77506D-10  0.96268D-11  0.20430D+03  0.51524D-05  0.51524D-05 -0.20083D-14 -0.45799D-14  0.31799D-11
  0.54000D+00  0.10160D-01 -0.44594D-02 -0.44594D-02  0.64628D-10  0.77506D-10  0.96290D-11  0.20474D+03  0.58992D-05  0.58992D-05 -0.60048D-14 -0.55664D-14 -0.15412D-11
  0.54250D+00  0.10170D-01 -0.44631D-02 -0.44631D-02  0.64628D-10  0.77506D-10  0.96317D-11  0.20518D+03  0.65283D-05  0.65283D-05 -0.85311D-15  0.38086D-14  0.21167D-11
  0.54500D+00  0.10180D-01 -0.44668D-02 -0.44668D-02  0.64627D-10  0.77505D-10  0.96341D-11  0.20560D+03  0.70445D-05  0.70445D-05 -0.14243D-14  0.60872D-14  0.25996D-11
  0.54750D+00  0.10190D-01 -0.44706D-02 -0.44706D-02  0.64627D-10  0.77505D-10  0.96367D-11  0.20601D+03  0.74501D-05  0.74501D-05  0.49453D-16  0.29263D-14  0.55864D-12
  0.55000D+00  0.10200D-01 -0.44744D-02 -0.44744D-02  0.64627D-10  0.77505D-10  0.96392D-11  0.20641D+03  0.77469D-05  0.77469D-05  0.23456D-14  0.19561D-15 -0.34381D-11
  0.55250D+00  0.10210D-01 -0.44782D-02 -0.44782D-02  0.64627D-10  0.77505D-10  0.96420D-11  0.20680D+03  0.79375D-05  0.79375D-05  0.23778D-14  0.18885D-14 -0.15160D-11
  0.55500D+00  0.10220D-01 -0.44821D-02 -0.44821D-02  0.64626D-10  0.77504D-10  0.96450D-11  0.20717D+03  0.80262D-05  0.80262D-05 -0.18982D-14 -0.65288D-14  0.42307D-12
  0.55750D+00  0.10230D-01 -0.44860D-02 -0.44860D-02  0.64626D-10  0.77504D-10  0.96476D-11  0.20752D+03  0.80198D-05  0.80198D-05 -0.82970D-14 -0.95077D-14  0.39956D-12
  0.56000D+00  0.10240D-01 -0.44899D-02 -0.44899D-02  0.64626D-10  0.77504D-10  0.96501D-11  0.20787D+03  0.79269D-05  0.79269D-05 -0.56476D-14  0.21336D-15 -0.47644D-12
  0.56250D+00  0.10250D-01 -0.44939D-02 -0.44939D-02  0.64625D-10  0.77503D-10  0.96527D-11  0.20819D+03  0.77582D-05  0.77582D-05  0.57368D-14  0.12409D-14  0.32500D-11
  0.56500D+00  0.10260D-01 -0.44980D-02 -0.44980D-02  0.64625D-10  0.77503D-10  0.96554D-11  0.20851D+03  0.75258D-05  0.75258D-05  0.31733D-14  0.96910D-14  0.18408D-11
  0.56750D+00  0.10270D-01 -0.45020D-02 -0.45020D-02  0.64625D-10  0.77503D-10  0.96582D-11  0.20881D+03  0.72423D-05  0.72423D-05  0.47858D-14  0.15195D-14  0.23744D-12
  0.57000D+00  0.10280D-01 -0.45061D-02 -0.45061D-02  0.64625D-10  0.77502D-10  0.96609D-11  0.20910D+03  0.69203D-05  0.69203D-05  0.25132D-14  0.20211D-14  0.31560D-13
  0.57250D+00  0.10290D-01 -0.45103D-02 -0.45103D-02  0.64624D-10  0.77502D-10  0.96636D-11  0.20937D+03  0.65721D-05  0.65721D-05 -0.34285D-14 -0.55412D-14  0.14071D-11
  0.57500D+00  0.10300D-01 -0.45145D-02 -0.45145D-02  0.64624D-10  0.77502D-10  0.96666D-11  0.20964D+03  0.62085D-05  0.62085D-05 -0.33040D-14 -0.28955D-14  0.56114D-12
  0.57750D+00  0.10310D-01 -0.45187D-02 -0.45187D-02  0.64624D-10  0.77501D-10  0.96696D-11  0.20989D+03  0.58392D-05  0.58392D-05 -0.20443D-14 -0.23588D-14 -0.11789D-11
  0.58000D+00  0.10320D-01 -0.45229D-02 -0.45229D-02  0.64624D-10  0.77501D-10  0.96723D-11  0.21014D+03  0.54721D-05  0.54721D-05  0.24682D-14  0.44820D-15 -0.58626D-12
  0.58250D+00  0.10330D-01 -0.45272D-02 -0.45272D-02  0.64623D-10  0.77501D-10  0.96752D-11  0.21037D+03  0.51136D-05  0.51136D-05  0.34464D-14  0.13673D-14 -0.43195D-12
  0.58500D+00  0.10340D-01 -0.45314D-02 -0.45314D-02  0.64623D-10  0.77500D-10  0.96782D-11  0.21059D+03  0.47686D-05  0.47686D-05  0.11544D-14 -0.12058D-14  0.44785D-12
  0.58750D+00  0.10350D-01 -0.45358D-02 -0.45358D-02  0.64623D-10  0.77500D-10  0.96812D-11  0.21081D+03  0.44406D-05  0.44406D-05 -0.11283D-13 -0.32347D-14 -0.61131D-12
  0.59000D+00  0.10360D-01 -0.45401D-02 -0.45401D-02  0.64622D-10  0.77500D-10  0.96844D-11  0.21102D+03  0.41316D-05  0.41316D-05 -0.66631D-14  0.21885D-15  0.40710D-11
  0.59250D+00  0.10370D-01 -0.45445D-02 -0.45445D-02  0.64622D-10  0.77499D-10  0.96874D-11  0.21122D+03  0.38431D-05  0.38431D-05 -0.30987D-16  0.15966D-14 -0.29706D-11
  0.59500D+00  0.10380D-01 -0.45488D-02 -0.45488D-02  0.64622D-10  0.77499D-10  0.96906D-11  0.21141D+03  0.35753D-05  0.35753D-05  0.30044D-15  0.32051D-14 -0.55144D-12
  0.59750D+00  0.10390D-01 -0.45532D-02 -0.45532D-02  0.64622D-10  0.77499D-10  0.96937D-11  0.21160D+03  0.33281D-05  0.33281D-05  0.16884D-14  0.70527D-15 -0.23987D-11
  0.60000D+00  0.10400D-01 -0.45576D-02 -0.45576D-02  0.64621D-10  0.77498D-10  0.96967D-11  0.21178D+03  0.31008D-05  0.31008D-05 -0.28115D-14 -0.16215D-14  0.36834D-12
  0.60250D+00  0.10410D-01 -0.45621D-02 -0.45621D-02  0.64621D-10  0.77498D-10  0.96998D-11  0.21196D+03  0.28924D-05  0.28924D-05  0.46048D-15  0.49432D-14 -0.29588D-11
  0.60500D+00  0.10420D-01 -0.45665D-02 -0.45665D-02  0.64621D-10  0.77498D-10  0.97032D-11  0.21213D+03  0.27017D-05  0.27017D-05  0.28801D-14 -0.46404D-17 -0.29771D-11
  0.60750D+00  0.10430D-01 -0.45709D-02 -0.45709D-02  0.64620D-10  0.77497D-10  0.97061D-11  0.21229D+03  0.25276D-05  0.25276D-05  0.41858D-15 -0.71975D-16 -0.18031D-11
  0.61000D+00  0.10440D-01 -0.45754D-02 -0.45754D-02  0.64620D-10  0.77497D-10  0.97092D-11  0.21246D+03  0.23685D-05  0.23685D-05  0.88602D-15 -0.45496D-16  0.30090D-11
  0.61250D+00  0.10450D-01 -0.45799D-02 -0.45799D-02  0.64620D-10  0.77497D-10  0.97123D-11  0.21261D+03  0.22234D-05  0.22234D-05 -0.36693D-14 -0.11898D-14  0.44536D-12
  0.61500D+00  0.10460D-01 -0.45844D-02 -0.45844D-02  0.64620D-10  0.77496D-10  0.97151D-11  0.21277D+03  0.20908D-05  0.20908D-05 -0.57641D-14 -0.17476D-14 -0.16902D-11
  0.61750D+00  0.10470D-01 -0.45889D-02 -0.45889D-02  0.64619D-10  0.77496D-10  0.97180D-11  0.21292D+03  0.19695D-05  0.19695D-05 -0.99361D-15 -0.44419D-14 -0.91535D-12
  0.62000D+00  0.10480D-01 -0.45934D-02 -0.45934D-02  0.64619D-10  0.77496D-10  0.97211D-11  0.21306D+03  0.18586D-05  0.18586D-05  0.70392D-14 -0.14042D-14  0.31909D-12
  0.62250D+00  0.10490D-01 -0.45979D-02 -0.45979D-02  0.64619D-10  0.77495D-10  0.97241D-11  0.21321D+03  0.17569D-05  0.17569D-05  0.94267D-14  0.24952D-14 -0.14254D-11
  0.62500D+00  0.10500D-01 -0.46024D-02 -0.46024D-02  0.64618D-10  0.77495D-10  0.97271D-11  0.21335D+03  0.16635D-05  0.16635D-05  0.54866D-14 -0.51780D-15 -0.10530D-11
  0.62750D+00  0.10510D-01 -0.46070D-02 -0.46070D-02  0.64618D-10  0.77495D-10  0.97306D-11  0.21348D+03  0.15776D-05  0.15776D-05 -0.50247D-15 -0.31292D-14  0.41433D-11
  0.63000D+00  0.10520D-01 -0.46115D-02 -0.46115D-02  0.64618D-10  0.77494D-10  0.97341D-11  0.21362D+03  0.14984D-05  0.14984D-05 -0.31655D-14  0.16176D-14 -0.19283D-12
  0.63250D+00  0.10530D-01 -0.46161D-02 -0.46161D-02  0.64618D-10  0.77494D-10  0.97374D-11  0.21375D+03  0.14253D-05  0.14253D-05 -0.10189D-14  0.45010D-14  0.86239D-12
  0.63500D+00  0.10540D-01 -0.46206D-02 -0.46206D-02  0.64617D-10  0.77493D-10  0.97407D-11  0.21388D+03  0.13576D-05  0.13576D-05  0.11409D-13 -0.18944D-14  0.16774D-11
  0.63750D+00  0.10550D-01 -0.46252D-02 -0.46252D-02  0.64617D-10  0.77493D-10  0.97438D-11  0.21401D+03  0.12948D-05  0.12948D-05  0.32373D-14 -0.38907D-14 -0.33667D-11
  0.64000D+00  0.10560D-01 -0.46298D-02 -0.46298D-02  0.64617D-10  0.77493D-10  0.97474D-11  0.21413D+03  0.12364D-05  0.12364D-05  0.49182D-15 -0.30866D-14  0.36595D-12
  0.64250D+00  0.10570D-01 -0.46343D-02 -0.46343D-02  0.64616D-10  0.77492D-10  0.97505D-11  0.21425D+03  0.11820D-05  0.11820D-05 -0.82462D-14 -0.81225D-14 -0.38668D-11
  0.64500D+00  0.10580D-01 -0.46389D-02 -0.46389D-02  0.64616D-10  0.77492D-10  0.97542D-11  0.21437D+03  0.11312D-05  0.11312D-05  0.78273D-14  0.26616D-14  0.17065D-11
  0.64750D+00  0.10590D-01 -0.46435D-02 -0.46435D-02  0.64616D-10  0.77492D-10  0.97575D-11  0.21449D+03  0.10840D-05  0.10840D-05  0.26277D-14 -0.13661D-14  0.44301D-11
  0.65000D+00  0.10600D-01 -0.46481D-02 -0.46481D-02  0.64615D-10  0.77491D-10  0.97605D-11  0.21461D+03  0.10393D-05  0.10393D-05  0.16264D-14  0.95343D-14 -0.40581D-11
  0.65250D+00  0.10610D-01 -0.46527D-02 -0.46527D-02  0.64615D-10  0.77491D-10  0.97638D-11  0.21472D+03  0.99752D-06  0.99752D-06  0.33362D-14  0.71206D-14  0.30276D-11
  0.65500D+00  0.10620D-01 -0.46573D-02 -0.46573D-02  0.64615D-10  0.77491D-10  0.97672D-11  0.21483D+03  0.95827D-06  0.95827D-06  0.24120D-14  0.14714D-15  0.33701D-12
  0.65750D+00  0.10630D-01 -0.46619D-02 -0.46619D-02  0.64615D-10  0.77490D-10  0.97702D-11  0.21494D+03  0.92131D-06  0.92131D-06  0.13051D-14  0.38996D-14  0.17903D-12
  0.66000D+00  0.10640D-01 -0.46665D-02 -0.46665D-02  0.64614D-10  0.77490D-10  0.97736D-11  0.21505D+03  0.88646D-06  0.88646D-06 -0.21175D-17 -0.14503D-15 -0.23252D-11
  0.66250D+00  0.10650D-01 -0.46712D-02 -0.46712D-02  0.64614D-10  0.77490D-10  0.97768D-11  0.21516D+03  0.85354D-06  0.85354D-06  0.53532D-14  0.36248D-14  0.17455D-12
  0.66500D+00  0.10660D-01 -0.46758D-02 -0.46758D-02  0.64614D-10  0.77489D-10  0.97803D-11  0.21526D+03  0.82240D-06  0.82240D-06  0.71427D-14  0.14496D-14 -0.58104D-12
  0.66750D+00  0.10670D-01 -0.46804D-02 -0.46804D-02  0.64613D-10  0.77489D-10  0.97835D-11  0.21537D+03  0.79292D-06  0.79292D-06  0.21432D-14 -0.57142D-14  0.24179D-11
  0.67000D+00  0.10680D-01 -0.46850D-02 -0.46850D-02  0.64613D-10  0.77488D-10  0.97872D-11  0.21547D+03  0.76497D-06  0.76497D-06 -0.86732D-15 -0.28711D-14  0.25090D-11
  0.67250D+00  0.10690D-01 -0.46897D-02 -0.46897D-02  0.64613D-10  0.77488D-10  0.97908D-11  0.21557D+03  0.73843D-06  0.73843D-06 -0.12294D-14  0.21040D-14  0.45022D-11
  0.67500D+00  0.10700D-01 -0.46943D-02 -0.46943D-02  0.64612D-10  0.77488D-10  0.97938D-11  0.21567D+03  0.71322D-06  0.71322D-06  0.18944D-14  0.42003D-14 -0.26467D-11
  0.67750D+00  0.10710D-01 -0.46990D-02 -0.46990D-02  0.64612D-10  0.77487D-10  0.97973D-11  0.21577D+03  0.68924D-06  0.68924D-06 -0.36225D-14 -0.16489D-14  0.93893D-12
  0.68000D+00  0.10720D-01 -0.47036D-02 -0.47036D-02  0.64612D-10  0.77487D-10  0.98004D-11  0.21587D+03  0.66641D-06  0.66642D-06 -0.25067D-14 -0.11861D-14 -0.20918D-12
  0.68250D+00  0.10730D-01 -0.47083D-02 -0.47083D-02  0.64612D-10  0.77487D-10  0.98038D-11  0.21597D+03  0.64466D-06  0.64466D-06  0.42978D-14  0.76146D-14  0.19094D-11
  0.68500D+00  0.10740D-01 -0.47129D-02 -0.47129D-02  0.64611D-10  0.77486D-10  0.98067D-11  0.21606D+03  0.62391D-06  0.62391D-06  0.27346D-14  0.88255D-15 -0.32825D-11
  0.68750D+00  0.10750D-01 -0.47176D-02 -0.47176D-02  0.64611D-10  0.77486D-10  0.98098D-11  0.21615D+03  0.60411D-06  0.60411D-06  0.16439D-14  0.44592D-14 -0.33468D-11
  0.69000D+00  0.10760D-01 -0.47222D-02 -0.47222D-02  0.64611D-10  0.77486D-10  0.98131D-11  0.21625D+03  0.58519D-06  0.58519D-06  0.41896D-14  0.10733D-14  0.85281D-12
  0.69250D+00  0.10770D-01 -0.47269D-02 -0.47269D-02  0.64610D-10  0.77485D-10  0.98165D-11  0.21634D+03  0.56710D-06  0.56710D-06  0.28342D-15 -0.17583D-14  0.12780D-11
  0.69500D+00  0.10780D-01 -0.47315D-02 -0.47315D-02  0.64610D-10  0.77485D-10  0.98195D-11  0.21643D+03  0.54980D-06  0.54980D-06 -0.14926D-14 -0.26759D-15  0.97437D-13
  0.69750D+00  0.10790D-01 -0.47362D-02 -0.47362D-02  0.64610D-10  0.77484D-10  0.98230D-11  0.21652D+03  0.53324D-06  0.53324D-06 -0.48331D-15  0.19939D-14  0.46650D-11
  0.70000D+00  0.10800D-01 -0.47409D-02 -0.47409D-02  0.64609D-10  0.77484D-10  0.98259D-11  0.21661D+03  0.51738D-06  0.51738D-06  0.45727D-14  0.41119D-14 -0.34109D-11
  0.70250D+00  0.10810D-01 -0.47456D-02 -0.47456D-02  0.64609D-10  0.77484D-10  0.98295D-11  0.21670D+03  0.50217D-06  0.50217D-06  0.18015D-14  0.77977D-15  0.20089D-11
  0.70500D+00  0.10820D-01 -0.47502D-02 -0.47502D-02  0.64609D-10  0.77483D-10  0.98326D-11  0.21678D+03  0.48759D-06  0.48759D-06  0.38463D-14 -0.28427D-14 -0.40906D-12
  0.70750D+00  0.10830D-01 -0.47549D-02 -0.47549D-02  0.64608D-10  0.77483D-10  0.98360D-11  0.21687D+03  0.47359D-06  0.47359D-06 -0.42268D-15 -0.57627D-14  0.25411D-11
  0.71000D+00  0.10840D-01 -0.47596D-02 -0.47596D-02  0.64608D-10  0.77483D-10  0.98394D-11  0.21696D+03  0.46015D-06  0.46015D-06 -0.97572D-15  0.25063D-14 -0.36016D-12
  0.71250D+00  0.10850D-01 -0.47643D-02 -0.47643D-02  0.64608D-10  0.77482D-10  0.98429D-11  0.21704D+03  0.44725D-06  0.44725D-06 -0.95594D-14 -0.51300D-14  0.14144D-11
  0.71500D+00  0.10860D-01 -0.47690D-02 -0.47690D-02  0.64608D-10  0.77482D-10  0.98461D-11  0.21712D+03  0.43484D-06  0.43484D-06 -0.30046D-14 -0.22705D-14 -0.10006D-11
  0.71750D+00  0.10870D-01 -0.47736D-02 -0.47736D-02  0.64607D-10  0.77482D-10  0.98499D-11  0.21721D+03  0.42291D-06  0.42291D-06 -0.62932D-14 -0.39961D-14  0.28970D-11
  0.72000D+00  0.10880D-01 -0.47783D-02 -0.47783D-02  0.64607D-10  0.77481D-10  0.98534D-11  0.21729D+03  0.41143D-06  0.41143D-06  0.12249D-14 -0.19325D-14  0.40480D-11
  0.72250D+00  0.10890D-01 -0.47830D-02 -0.47830D-02  0.64607D-10  0.77481D-10  0.98569D-11  0.21737D+03  0.40038D-06  0.40038D-06  0.52164D-14  0.32007D-14  0.44340D-12
  0.72500D+00  0.10900D-01 -0.47877D-02 -0.47877D-02  0.64606D-10  0.77480D-10  0.98606D-11  0.21745D+03  0.38974D-06  0.38974D-06 -0.16701D-14 -0.38509D-14  0.50385D-11
  0.72750D+00  0.10910D-01 -0.47924D-02 -0.47924D-02  0.64606D-10  0.77480D-10  0.98642D-11  0.21753D+03  0.37949D-06  0.37949D-06 -0.24629D-14 -0.80282D-15  0.16239D-11
  0.73000D+00  0.10920D-01 -0.47971D-02 -0.47971D-02  0.64606D-10  0.77480D-10  0.98674D-11  0.21761D+03  0.36961D-06  0.36962D-06 -0.74881D-14 -0.84238D-14  0.50281D-12
  0.73250D+00  0.10930D-01 -0.48018D-02 -0.48018D-02  0.64605D-10  0.77479D-10  0.98708D-11  0.21769D+03  0.36009D-06  0.36009D-06 -0.13748D-14 -0.27229D-14  0.30871D-11
  0.73500D+00  0.10940D-01 -0.48065D-02 -0.48065D-02  0.64605D-10  0.77479D-10  0.98744D-11  0.21777D+03  0.35090D-06  0.35090D-06  0.31428D-14  0.19378D-14 -0.29563D-11
  0.73750D+00  0.10950D-01 -0.48112D-02 -0.48112D-02  0.64605D-10  0.77479D-10  0.98780D-11  0.21784D+03  0.34204D-06  0.34204D-06  0.27817D-14  0.38753D-14  0.70160D-12
  0.74000D+00  0.10960D-01 -0.48159D-02 -0.48159D-02  0.64604D-10  0.77478D-10  0.98815D-11  0.21792D+03  0.33348D-06  0.33348D-06  0.44623D-14  0.30001D-14  0.25003D-11
  0.74250D+00  0.10970D-01 -0.48206D-02 -0.48206D-02  0.64604D-10  0.77478D-10  0.98849D-11  0.21800D+03  0.32521D-06  0.32521D-06 -0.23375D-14 -0.45245D-15 -0.19224D-11
  0.74500D+00  0.10980D-01 -0.48253D-02 -0.48253D-02  0.64604D-10  0.77477D-10  0.98882D-11  0.21807D+03  0.31723D-06  0.31723D-06 -0.43985D-14 -0.82201D-14 -0.64351D-12
  0.74750D+00  0.10990D-01 -0.48300D-02 -0.48300D-02  0.64604D-10  0.77477D-10  0.98912D-11  0.21815D+03  0.30951D-06  0.30951D-06 -0.35031D-15 -0.12728D-14 -0.28852D-11
  0.75000D+00  0.11000D-01 -0.48347D-02 -0.48347D-02  0.64603D-10  0.77477D-10  0.98948D-11  0.21822D+03  0.30205D-06  0.30205D-06  0.10484D-14  0.15577D-15  0.44215D-11
  0.75250D+00  0.11010D-01 -0.48395D-02 -0.48395D-02  0.64603D-10  0.77476D-10  0.98979D-11  0.21830D+03  0.29483D-06  0.29483D-06 -0.10719D-14  0.29904D-15 -0.19525D-11
  0.75500D+00  0.11020D-01 -0.48442D-02 -0.48442D-02  0.64603D-10  0.77476D-10  0.99012D-11  0.21837D+03  0.28785D-06  0.28786D-06 -0.53297D-14  0.28072D-14 -0.27205D-12
  0.75750D+00  0.11030D-01 -0.48489D-02 -0.48489D-02  0.64602D-10  0.77476D-10  0.99047D-11  0.21844D+03  0.28110D-06  0.28110D-06 -0.90442D-14 -0.51925D-14 -0.14521D-11
  0.76000D+00  0.11040D-01 -0.48536D-02 -0.48536D-02  0.64602D-10  0.77475D-10  0.99083D-11  0.21851D+03  0.27456D-06  0.27456D-06  0.30053D-15 -0.40208D-14  0.45120D-12
  0.76250D+00  0.11050D-01 -0.48583D-02 -0.48583D-02  0.64602D-10  0.77475D-10  0.99118D-11  0.21859D+03  0.26823D-06  0.26823D-06  0.33691D-14 -0.10935D-14  0.36732D-11
  0.76500D+00  0.11060D-01 -0.48630D-02 -0.48630D-02  0.64601D-10  0.77475D-10  0.99154D-11  0.21866D+03  0.26210D-06  0.26210D-06  0.26639D-14  0.67669D-14  0.32634D-11
  0.76750D+00  0.11070D-01 -0.48678D-02 -0.48678D-02  0.64601D-10  0.77474D-10  0.99188D-11  0.21873D+03  0.25616D-06  0.25616D-06  0.25282D-14  0.90042D-14 -0.53027D-11
  0.77000D+00  0.11080D-01 -0.48725D-02 -0.48725D-02  0.64601D-10  0.77474D-10  0.99224D-11  0.21880D+03  0.25040D-06  0.25040D-06  0.77374D-15  0.10658D-14  0.19844D-11
  0.77250D+00  0.11090D-01 -0.48772D-02 -0.48772D-02  0.64600D-10  0.77473D-10  0.99258D-11  0.21887D+03  0.24482D-06  0.24482D-06 -0.26930D-14 -0.22449D-14 -0.12487D-11
  0.77500D+00  0.11100D-01 -0.48819D-02 -0.48819D-02  0.64600D-10  0.77473D-10  0.99289D-11  0.21894D+03  0.23940D-06  0.23940D-06  0.10734D-14  0.50301D-15 -0.32952D-11
  0.77750D+00  0.11110D-01 -0.48867D-02 -0.48867D-02  0.64600D-10  0.77473D-10  0.99322D-11  0.21900D+03  0.23415D-06  0.23415D-06  0.21670D-14 -0.35137D-14 -0.17521D-11
  0.78000D+00  0.11120D-01 -0.48914D-02 -0.48914D-02  0.64600D-10  0.77472D-10  0.99358D-11  0.21907D+03  0.22906D-06  0.22906D-06  0.75875D-14  0.12902D-14  0.11422D-11
  0.78250D+00  0.11130D-01 -0.48961D-02 -0.48961D-02  0.64599D-10  0.77472D-10  0.99393D-11  0.21914D+03  0.22411D-06  0.22411D-06  0.48636D-15  0.26988D-14  0.52632D-12
  0.78500D+00  0.11140D-01 -0.49008D-02 -0.49008D-02  0.64599D-10  0.77472D-10  0.99427D-11  0.21921D+03  0.21931D-06  0.21931D-06 -0.17292D-14  0.36190D-14  0.48590D-12
  0.78750D+00  0.11150D-01 -0.49056D-02 -0.49056D-02  0.64599D-10  0.77471D-10  0.99465D-11  0.21928D+03  0.21465D-06  0.21465D-06  0.27239D-14  0.39375D-14 -0.58704D-12
  0.79000D+00  0.11160D-01 -0.49103D-02 -0.49103D-02  0.64598D-10  0.77471D-10  0.99498D-11  0.21934D+03  0.21013D-06  0.21013D-06  0.10702D-14 -0.18772D-14 -0.40223D-12
  0.79250D+00  0.11170D-01 -0.49150D-02 -0.49150D-02  0.64598D-10  0.77470D-10  0.99532D-11  0.21941D+03  0.20573D-06  0.20573D-06  0.11982D-14 -0.64878D-15  0.52652D-12
  0.79500D+00  0.11180D-01 -0.49198D-02 -0.49198D-02  0.64598D-10  0.77470D-10  0.99570D-11  0.21947D+03  0.20145D-06  0.20145D-06  0.43283D-15  0.22278D-14  0.33045D-11
  0.79750D+00  0.11190D-01 -0.49245D-02 -0.49245D-02  0.64597D-10  0.77470D-10  0.99603D-11  0.21954D+03  0.19730D-06  0.19730D-06 -0.21920D-15  0.62627D-14  0.44380D-11
  0.80000D+00  0.11200D-01 -0.49292D-02 -0.49292D-02  0.64597D-10  0.77469D-10  0.99637D-11  0.21960D+03  0.19326D-06  0.19326D-06 -0.65485D-14 -0.43676D-14  0.12043D-11
  0.80250D+00  0.11210D-01 -0.49340D-02 -0.49340D-02  0.64597D-10  0.77469D-10  0.99669D-11  0.21967D+03  0.18933D-06  0.18933D-06  0.11833D-14 -0.31622D-15 -0.28874D-11
  0.80500D+00  0.11220D-01 -0.49387D-02 -0.49387D-02  0.64596D-10  0.77469D-10  0.99703D-11  0.21973D+03  0.18551D-06  0.18551D-06  0.52728D-14  0.22918D-14 -0.23166D-12
  0.80750D+00  0.11230D-01 -0.49434D-02 -0.49434D-02  0.64596D-10  0.77468D-10  0.99737D-11  0.21980D+03  0.18180D-06  0.18180D-06  0.37423D-14 -0.52204D-14 -0.15327D-11
  0.81000D+00  0.11240D-01 -0.49482D-02 -0.49482D-02  0.64596D-10  0.77468D-10  0.99773D-11  0.21986D+03  0.17818D-06  0.17818D-06  0.76486D-14  0.28206D-14  0.27058D-11
  0.81250D+00  0.11250D-01 -0.49529D-02 -0.49529D-02  0.64596D-10  0.77467D-10  0.99806D-11  0.21992D+03  0.17466D-06  0.17466D-06  0.31577D-14  0.16598D-14  0.17365D-11
  0.81500D+00  0.11260D-01 -0.49577D-02 -0.49577D-02  0.64595D-10  0.77467D-10  0.99837D-11  0.21999D+03  0.17124D-06  0.17124D-06 -0.69351D-14 -0.48229D-14 -0.29323D-11
  0.81750D+00  0.11270D-01 -0.49624D-02 -0.49624D-02  0.64595D-10  0.77467D-10  0.99872D-11  0.22005D+03  0.16790D-06  0.16790D-06 -0.78913D-14 -0.55141D-14 -0.45457D-12
  0.82000D+00  0.11280D-01 -0.49672D-02 -0.49672D-02  0.64595D-10  0.77466D-10  0.99908D-11  0.22011D+03  0.16465D-06  0.16465D-06 -0.21966D-14 -0.69614D-15 -0.71906D-12
  0.82250D+00  0.11290D-01 -0.49719D-02 -0.49719D-02  0.64594D-10  0.77466D-10  0.99945D-11  0.22018D+03  0.16149D-06  0.16149D-06  0.22841D-14  0.39617D-14  0.17669D-11
  0.82500D+00  0.11300D-01 -0.49766D-02 -0.49766D-02  0.64594D-10  0.77466D-10  0.99980D-11  0.22024D+03  0.15840D-06  0.15840D-06  0.42366D-14  0.32867D-14  0.32692D-13
  0.82750D+00  0.11310D-01 -0.49814D-02 -0.49814D-02  0.64594D-10  0.77465D-10  0.10001D-10  0.22030D+03  0.15540D-06  0.15540D-06  0.70184D-15  0.18726D-14  0.30662D-11
  0.83000D+00  0.11320D-01 -0.49861D-02 -0.49861D-02  0.64593D-10  0.77465D-10  0.10005D-10  0.22036D+03  0.15247D-06  0.15247D-06  0.93618D-14  0.35464D-14 -0.33055D-11
  0.83250D+00  0.11330D-01 -0.49909D-02 -0.49909D-02  0.64593D-10  0.77465D-10  0.10008D-10  0.22042D+03  0.14962D-06  0.14962D-06  0.85367D-14  0.54604D-14 -0.21380D-11
  0.83500D+00  0.11340D-01 -0.49956D-02 -0.49956D-02  0.64593D-10  0.77464D-10  0.10012D-10  0.22048D+03  0.14683D-06  0.14683D-06  0.64931D-14  0.25242D-14 -0.68206D-12
  0.83750D+00  0.11350D-01 -0.50004D-02 -0.50004D-02  0.64592D-10  0.77464D-10  0.10015D-10  0.22054D+03  0.14412D-06  0.14412D-06  0.37478D-14  0.66424D-14 -0.74135D-12
  0.84000D+00  0.11360D-01 -0.50051D-02 -0.50051D-02  0.64592D-10  0.77463D-10  0.10018D-10  0.22060D+03  0.14147D-06  0.14147D-06 -0.33474D-14 -0.79990D-15  0.33811D-11
  0.84250D+00  0.11370D-01 -0.50099D-02 -0.50099D-02  0.64592D-10  0.77463D-10  0.10022D-10  0.22066D+03  0.13889D-06  0.13889D-06 -0.93793D-14 -0.12157D-13 -0.46787D-12
  0.84500D+00  0.11380D-01 -0.50146D-02 -0.50146D-02  0.64592D-10  0.77463D-10  0.10025D-10  0.22072D+03  0.13637D-06  0.13637D-06  0.26222D-14 -0.65348D-14 -0.61727D-12
  0.84750D+00  0.11390D-01 -0.50194D-02 -0.50194D-02  0.64591D-10  0.77462D-10  0.10028D-10  0.22078D+03  0.13391D-06  0.13391D-06 -0.12781D-14  0.23065D-14 -0.93965D-12
  0.85000D+00  0.11400D-01 -0.50241D-02 -0.50241D-02  0.64591D-10  0.77462D-10  0.10032D-10  0.22084D+03  0.13151D-06  0.13151D-06 -0.40960D-15  0.67764D-15  0.19474D-11
  0.85250D+00  0.11410D-01 -0.50289D-02 -0.50289D-02  0.64591D-10  0.77462D-10  0.10035D-10  0.22090D+03  0.12917D-06  0.12917D-06 -0.99281D-14 -0.42733D-14 -0.40761D-11
  0.85500D+00  0.11420D-01 -0.50336D-02 -0.50336D-02  0.64590D-10  0.77461D-10  0.10039D-10  0.22096D+03  0.12688D-06  0.12688D-06 -0.39505D-14 -0.18643D-15 -0.85293D-13
  0.85750D+00  0.11430D-01 -0.50384D-02 -0.50384D-02  0.64590D-10  0.77461D-10  0.10042D-10  0.22101D+03  0.12464D-06  0.12464D-06 -0.42478D-14 -0.30446D-14 -0.28018D-11
  0.86000D+00  0.11440D-01 -0.50431D-02 -0.50431D-02  0.64590D-10  0.77460D-10  0.10046D-10  0.22107D+03  0.12246D-06  0.12246D-06 -0.63101D-15 -0.39666D-14  0.24369D-11
  0.86250D+00  0.11450D-01 -0.50479D-02 -0.50479D-02  0.64589D-10  0.77460D-10  0.10049D-10  0.22113D+03  0.12033D-06  0.12033D-06  0.35845D-14 -0.74677D-14  0.27184D-12
  0.86500D+00  0.11460D-01 -0.50526D-02 -0.50526D-02  0.64589D-10  0.77460D-10  0.10053D-10  0.22119D+03  0.11825D-06  0.11825D-06 -0.20176D-14 -0.38051D-14 -0.65596D-12
  0.86750D+00  0.11470D-01 -0.50574D-02 -0.50574D-02  0.64589D-10  0.77459D-10  0.10056D-10  0.22124D+03  0.11621D-06  0.11621D-06  0.21646D-14 -0.46292D-14 -0.20910D-13
  0.87000D+00  0.11480D-01 -0.50622D-02 -0.50622D-02  0.64588D-10  0.77459D-10  0.10060D-10  0.22130D+03  0.11422D-06  0.11422D-06  0.88880D-14  0.53148D-14 -0.62890D-12
  0.87250D+00  0.11490D-01 -0.50669D-02 -0.50669D-02  0.64588D-10  0.77459D-10  0.10063D-10  0.22136D+03  0.11228D-06  0.11228D-06  0.41134D-14  0.59469D-14 -0.70441D-12
  0.87500D+00  0.11500D-01 -0.50717D-02 -0.50717D-02  0.64588D-10  0.77458D-10  0.10067D-10  0.22141D+03  0.11038D-06  0.11038D-06  0.51702D-15  0.34533D-14  0.22366D-11
  0.87750D+00  0.11510D-01 -0.50764D-02 -0.50764D-02  0.64587D-10  0.77458D-10  0.10071D-10  0.22147D+03  0.10852D-06  0.10852D-06  0.33941D-16 -0.10730D-14 -0.95956D-12
  0.88000D+00  0.11520D-01 -0.50812D-02 -0.50812D-02  0.64587D-10  0.77457D-10  0.10074D-10  0.22153D+03  0.10670D-06  0.10670D-06  0.22790D-15 -0.17955D-14 -0.25530D-11
  0.88250D+00  0.11530D-01 -0.50859D-02 -0.50859D-02  0.64587D-10  0.77457D-10  0.10078D-10  0.22158D+03  0.10493D-06  0.10493D-06 -0.33886D-14 -0.23777D-14  0.79127D-12
  0.88500D+00  0.11540D-01 -0.50907D-02 -0.50907D-02  0.64587D-10  0.77457D-10  0.10081D-10  0.22164D+03  0.10319D-06  0.10319D-06  0.20855D-14  0.57002D-15  0.95598D-12
  0.88750D+00  0.11550D-01 -0.50955D-02 -0.50955D-02  0.64586D-10  0.77456D-10  0.10085D-10  0.22169D+03  0.10149D-06  0.10149D-06 -0.14816D-14 -0.35380D-14 -0.85482D-12
  0.89000D+00  0.11560D-01 -0.51002D-02 -0.51002D-02  0.64586D-10  0.77456D-10  0.10088D-10  0.22175D+03  0.99825D-07  0.99825D-07 -0.54387D-14 -0.93669D-14 -0.76277D-12
  0.89250D+00  0.11570D-01 -0.51050D-02 -0.51050D-02  0.64586D-10  0.77456D-10  0.10092D-10  0.22180D+03  0.98197D-07  0.98196D-07  0.29846D-14  0.53791D-14  0.51096D-12
  0.89500D+00  0.11580D-01 -0.51098D-02 -0.51098D-02  0.64585D-10  0.77455D-10  0.10095D-10  0.22186D+03  0.96603D-07  0.96603D-07 -0.38301D-14 -0.36281D-14 -0.68283D-12
  0.89750D+00  0.11590D-01 -0.51145D-02 -0.51145D-02  0.64585D-10  0.77455D-10  0.10098D-10  0.22191D+03  0.95042D-07  0.95043D-07 -0.34162D-15  0.48926D-14  0.75124D-12
  0.90000D+00  0.11600D-01 -0.51193D-02 -0.51193D-02  0.64585D-10  0.77454D-10  0.10102D-10  0.22197D+03  0.93516D-07  0.93516D-07  0.10429D-14  0.23756D-14 -0.35292D-11
  0.90250D+00  0.11610D-01 -0.51240D-02 -0.51240D-02  0.64584D-10  0.77454D-10  0.10106D-10  0.22202D+03  0.92021D-07  0.92021D-07  0.11978D-14  0.73313D-14 -0.28367D-11
  0.90500D+00  0.11620D-01 -0.51288D-02 -0.51288D-02  0.64584D-10  0.77454D-10  0.10109D-10  0.22208D+03  0.90556D-07  0.90557D-07  0.81650D-14  0.45930D-14 -0.87440D-12
  0.90750D+00  0.11630D-01 -0.51336D-02 -0.51336D-02  0.64584D-10  0.77453D-10  0.10112D-10  0.22213D+03  0.89123D-07  0.89123D-07  0.30492D-14 -0.42723D-14 -0.17632D-11
  0.91000D+00  0.11640D-01 -0.51383D-02 -0.51383D-02  0.64583D-10  0.77453D-10  0.10115D-10  0.22218D+03  0.87719D-07  0.87718D-07 -0.14363D-14  0.43700D-14 -0.30925D-11
  0.91250D+00  0.11650D-01 -0.51431D-02 -0.51431D-02  0.64583D-10  0.77453D-10  0.10119D-10  0.22224D+03  0.86342D-07  0.86343D-07  0.14952D-14 -0.21771D-14  0.12027D-11
  0.91500D+00  0.11660D-01 -0.51479D-02 -0.51479D-02  0.64583D-10  0.77452D-10  0.10123D-10  0.22229D+03  0.84994D-07  0.84995D-07  0.88948D-14  0.39368D-14  0.57536D-11
  0.91750D+00  0.11670D-01 -0.51526D-02 -0.51526D-02  0.64583D-10  0.77452D-10  0.10126D-10  0.22234D+03  0.83674D-07  0.83674D-07  0.28418D-14  0.11048D-14  0.18584D-11
  0.92000D+00  0.11680D-01 -0.51574D-02 -0.51574D-02  0.64582D-10  0.77452D-10  0.10130D-10  0.22240D+03  0.82380D-07  0.82380D-07  0.25626D-14  0.57934D-14  0.45422D-11
  0.92250D+00  0.11690D-01 -0.51622D-02 -0.51622D-02  0.64582D-10  0.77451D-10  0.10133D-10  0.22245D+03  0.81111D-07  0.81112D-07  0.16011D-14 -0.48350D-16 -0.14477D-11
  0.92500D+00  0.11700D-01 -0.51669D-02 -0.51669D-02  0.64582D-10  0.77451D-10  0.10136D-10  0.22250D+03  0.79869D-07  0.79868D-07 -0.66901D-15  0.16701D-14 -0.33651D-11
  0.92750D+00  0.11710D-01 -0.51717D-02 -0.51717D-02  0.64581D-10  0.77450D-10  0.10140D-10  0.22255D+03  0.78650D-07  0.78649D-07  0.19717D-14  0.10327D-14 -0.22694D-11
  0.93000D+00  0.11720D-01 -0.51765D-02 -0.51765D-02  0.64581D-10  0.77450D-10  0.10143D-10  0.22261D+03  0.77455D-07  0.77455D-07  0.31946D-14  0.84788D-15 -0.27929D-11
  0.93250D+00  0.11730D-01 -0.51812D-02 -0.51812D-02  0.64581D-10  0.77450D-10  0.10147D-10  0.22266D+03  0.76283D-07  0.76283D-07 -0.25026D-15 -0.26143D-14  0.40399D-11
  0.93500D+00  0.11740D-01 -0.51860D-02 -0.51860D-02  0.64580D-10  0.77449D-10  0.10150D-10  0.22271D+03  0.75134D-07  0.75135D-07 -0.47835D-14 -0.59778D-14  0.29667D-11
  0.93750D+00  0.11750D-01 -0.51908D-02 -0.51908D-02  0.64580D-10  0.77449D-10  0.10154D-10  0.22276D+03  0.74008D-07  0.74008D-07  0.95415D-15  0.22256D-14 -0.14948D-11
  0.94000D+00  0.11760D-01 -0.51955D-02 -0.51955D-02  0.64580D-10  0.77449D-10  0.10157D-10  0.22281D+03  0.72902D-07  0.72903D-07  0.40289D-14  0.19043D-14  0.12979D-11
  0.94250D+00  0.11770D-01 -0.52003D-02 -0.52003D-02  0.64579D-10  0.77448D-10  0.10161D-10  0.22286D+03  0.71819D-07  0.71819D-07 -0.93502D-15  0.14283D-14  0.19523D-11
  0.94500D+00  0.11780D-01 -0.52051D-02 -0.52051D-02  0.64579D-10  0.77448D-10  0.10165D-10  0.22292D+03  0.70755D-07  0.70755D-07  0.41429D-14  0.69669D-14 -0.62318D-13
  0.94750D+00  0.11790D-01 -0.52098D-02 -0.52098D-02  0.64579D-10  0.77447D-10  0.10168D-10  0.22297D+03  0.69712D-07  0.69712D-07  0.34777D-14  0.35750D-14  0.41289D-12
  0.95000D+00  0.11800D-01 -0.52146D-02 -0.52146D-02  0.64578D-10  0.77447D-10  0.10171D-10  0.22302D+03  0.68688D-07  0.68688D-07 -0.11958D-15 -0.67996D-15  0.20914D-11
  0.95250D+00  0.11810D-01 -0.52194D-02 -0.52194D-02  0.64578D-10  0.77447D-10  0.10175D-10  0.22307D+03  0.67683D-07  0.67683D-07 -0.81357D-15 -0.28736D-14  0.18512D-12
  0.95500D+00  0.11820D-01 -0.52242D-02 -0.52242D-02  0.64578D-10  0.77446D-10  0.10179D-10  0.22312D+03  0.66697D-07  0.66697D-07 -0.37738D-14 -0.22576D-14  0.46272D-11
  0.95750D+00  0.11830D-01 -0.52289D-02 -0.52289D-02  0.64578D-10  0.77446D-10  0.10182D-10  0.22317D+03  0.65729D-07  0.65729D-07 -0.10160D-13 -0.34285D-15  0.13165D-11
  0.96000D+00  0.11840D-01 -0.52337D-02 -0.52337D-02  0.64577D-10  0.77446D-10  0.10185D-10  0.22322D+03  0.64779D-07  0.64779D-07 -0.66289D-14 -0.24750D-14  0.11617D-11
  0.96250D+00  0.11850D-01 -0.52385D-02 -0.52385D-02  0.64577D-10  0.77445D-10  0.10189D-10  0.22327D+03  0.63846D-07  0.63846D-07 -0.21334D-14 -0.35827D-14  0.88168D-12
  0.96500D+00  0.11860D-01 -0.52433D-02 -0.52433D-02  0.64577D-10  0.77445D-10  0.10192D-10  0.22332D+03  0.62929D-07  0.62930D-07  0.48348D-14 -0.14122D-14  0.77258D-12
  0.96750D+00  0.11870D-01 -0.52480D-02 -0.52480D-02  0.64576D-10  0.77444D-10  0.10195D-10  0.22337D+03  0.62030D-07  0.62030D-07  0.88999D-14  0.82363D-15 -0.36200D-12
  0.97000D+00  0.11880D-01 -0.52528D-02 -0.52528D-02  0.64576D-10  0.77444D-10  0.10199D-10  0.22342D+03  0.61147D-07  0.61147D-07  0.10498D-14  0.46632D-14 -0.50263D-12
  0.97250D+00  0.11890D-01 -0.52576D-02 -0.52576D-02  0.64576D-10  0.77444D-10  0.10202D-10  0.22347D+03  0.60279D-07  0.60279D-07 -0.10054D-13 -0.16810D-14 -0.19519D-11
  0.97500D+00  0.11900D-01 -0.52623D-02 -0.52623D-02  0.64575D-10  0.77443D-10  0.10206D-10  0.22352D+03  0.59427D-07  0.59427D-07 -0.10279D-13 -0.66218D-14  0.36700D-11
  0.97750D+00  0.11910D-01 -0.52671D-02 -0.52671D-02  0.64575D-10  0.77443D-10  0.10210D-10  0.22357D+03  0.58590D-07  0.58590D-07  0.34598D-15 -0.36317D-14 -0.95176D-12
  0.98000D+00  0.11920D-01 -0.52719D-02 -0.52719D-02  0.64575D-10  0.77443D-10  0.10213D-10  0.22362D+03  0.57768D-07  0.57768D-07 -0.58868D-14 -0.35993D-14  0.13185D-11
  0.98250D+00  0.11930D-01 -0.52767D-02 -0.52767D-02  0.64574D-10  0.77442D-10  0.10217D-10  0.22367D+03  0.56960D-07  0.56960D-07  0.28184D-14  0.49958D-14 -0.22533D-11
  0.98500D+00  0.11940D-01 -0.52814D-02 -0.52814D-02  0.64574D-10  0.77442D-10  0.10220D-10  0.22372D+03  0.56166D-07  0.56165D-07  0.67273D-14  0.51989D-14  0.85777D-12
  0.98750D+00  0.11950D-01 -0.52862D-02 -0.52862D-02  0.64574D-10  0.77441D-10  0.10223D-10  0.22377D+03  0.55385D-07  0.55386D-07  0.66378D-14  0.61911D-14 -0.32999D-11
  0.99000D+00  0.11960D-01 -0.52910D-02 -0.52910D-02  0.64573D-10  0.77441D-10  0.10226D-10  0.22382D+03  0.54619D-07  0.54619D-07  0.58444D-14  0.45568D-14 -0.37447D-11
  0.99250D+00  0.11970D-01 -0.52958D-02 -0.52958D-02  0.64573D-10  0.77441D-10  0.10230D-10  0.22387D+03  0.53865D-07  0.53865D-07  0.58668D-14 -0.11848D-14 -0.25705D-11
  0.99500D+00  0.11980D-01 -0.53005D-02 -0.53005D-02  0.64573D-10  0.77440D-10  0.10233D-10  0.22391D+03  0.53124D-07  0.53124D-07  0.60180D-16 -0.11753D-14 -0.31537D-11
  0.99750D+00  0.11990D-01 -0.53053D-02 -0.53053D-02  0.64573D-10  0.77440D-10  0.10237D-10  0.22396D+03  0.52396D-07  0.52396D-07  0.18332D-14 -0.15775D-14  0.24492D-11
  0.10000D+01  0.12000D-01 -0.53101D-02 -0.53101D-02  0.64572D-10  0.77440D-10  0.10241D-10  0.22401D+03  0.51680D-07  0.51680D-07 -0.33352D-14  0.33887D-14 -0.37211D-11
